 Entering Gaussian System, Link 0=g16
 Input=tBut_Ru_T_Crossing_RRegion_Interpol_struc_2_5_T.gjf
 Output=tBut_Ru_T_Crossing_RRegion_Interpol_struc_2_5_T.log
 Initial command:
 /cluster/apps/g16/g16/l1.exe "/beegfs/do57cig/gauss2044022/Gau-99527.inp" -scrdir="/beegfs/do57cig/gauss2044022/"
 Default CPUs for threads: 0-23
 Default is to use a total of  24 processors:
                               24 via shared-memory
                                1 via Linda
 Entering Link 1 = /cluster/apps/g16/g16/l1.exe PID=     99532.
  
 Copyright (c) 1988-2017, Gaussian, Inc.  All Rights Reserved.
  
 This is part of the Gaussian(R) 16 program.  It is based on
 the Gaussian(R) 09 system (copyright 2009, Gaussian, Inc.),
 the Gaussian(R) 03 system (copyright 2003, Gaussian, Inc.),
 the Gaussian(R) 98 system (copyright 1998, Gaussian, Inc.),
 the Gaussian(R) 94 system (copyright 1995, Gaussian, Inc.),
 the Gaussian 92(TM) system (copyright 1992, Gaussian, Inc.),
 the Gaussian 90(TM) system (copyright 1990, Gaussian, Inc.),
 the Gaussian 88(TM) system (copyright 1988, Gaussian, Inc.),
 the Gaussian 86(TM) system (copyright 1986, Carnegie Mellon
 University), and the Gaussian 82(TM) system (copyright 1983,
 Carnegie Mellon University). Gaussian is a federally registered
 trademark of Gaussian, Inc.
  
 This software contains proprietary and confidential information,
 including trade secrets, belonging to Gaussian, Inc.
  
 This software is provided under written license and may be
 used, copied, transmitted, or stored only in accord with that
 written license.
  
 The following legend is applicable only to US Government
 contracts under FAR:
  
                    RESTRICTED RIGHTS LEGEND
  
 Use, reproduction and disclosure by the US Government is
 subject to restrictions as set forth in subparagraphs (a)
 and (c) of the Commercial Computer Software - Restricted
 Rights clause in FAR 52.227-19.
  
 Gaussian, Inc.
 340 Quinnipiac St., Bldg. 40, Wallingford CT 06492
  
  
 ---------------------------------------------------------------
 Warning -- This program may not be used in any manner that
 competes with the business of Gaussian, Inc. or will provide
 assistance to any competitor of Gaussian, Inc.  The licensee
 of this program is prohibited from giving any competitor of
 Gaussian, Inc. access to this program.  By using this program,
 the user acknowledges that Gaussian, Inc. is engaged in the
 business of creating and licensing software in the field of
 computational chemistry and represents and warrants to the
 licensee that it is not a competitor of Gaussian, Inc. and that
 it will not use this program in any manner prohibited above.
 ---------------------------------------------------------------
  

 Cite this work as:
 Gaussian 16, Revision B.01,
 M. J. Frisch, G. W. Trucks, H. B. Schlegel, G. E. Scuseria, 
 M. A. Robb, J. R. Cheeseman, G. Scalmani, V. Barone, 
 G. A. Petersson, H. Nakatsuji, X. Li, M. Caricato, A. V. Marenich, 
 J. Bloino, B. G. Janesko, R. Gomperts, B. Mennucci, H. P. Hratchian, 
 J. V. Ortiz, A. F. Izmaylov, J. L. Sonnenberg, D. Williams-Young, 
 F. Ding, F. Lipparini, F. Egidi, J. Goings, B. Peng, A. Petrone, 
 T. Henderson, D. Ranasinghe, V. G. Zakrzewski, J. Gao, N. Rega, 
 G. Zheng, W. Liang, M. Hada, M. Ehara, K. Toyota, R. Fukuda, 
 J. Hasegawa, M. Ishida, T. Nakajima, Y. Honda, O. Kitao, H. Nakai, 
 T. Vreven, K. Throssell, J. A. Montgomery, Jr., J. E. Peralta, 
 F. Ogliaro, M. J. Bearpark, J. J. Heyd, E. N. Brothers, K. N. Kudin, 
 V. N. Staroverov, T. A. Keith, R. Kobayashi, J. Normand, 
 K. Raghavachari, A. P. Rendell, J. C. Burant, S. S. Iyengar, 
 J. Tomasi, M. Cossi, J. M. Millam, M. Klene, C. Adamo, R. Cammi, 
 J. W. Ochterski, R. L. Martin, K. Morokuma, O. Farkas, 
 J. B. Foresman, and D. J. Fox, Gaussian, Inc., Wallingford CT, 2016.
 
 ******************************************
 Gaussian 16:  ES64L-G16RevB.01 20-Dec-2017
                29-Jan-2024 
 ******************************************
 %chk=tBut_Ru_T_Crossing_region_Interpol_struc_2_5_T.chk
 SetSPE:  set environment variable "MP_BIND" = "yes"
 SetSPE:  set environment variable "MP_BLIST" = "0,1,2,3,4,5,6,7,8,9,10,11,12,13,14,15,16,17,18,19,20,21,22,23"
 Default route: CacheSize=81920
 ----------------------------------------------------------------------
 # td=(triplets,nstates=5,conver=3) b3lyp scrf=(smd,solvent=water,itera
 tive) def2svp empiricaldispersion=gd3bj int=ultrafine scf=xqc
 ----------------------------------------------------------------------
 1/4=81920,38=1,172=1/1;
 2/4=81920,12=2,17=6,18=5,40=1/2;
 3/4=81920,5=43,7=101,11=9,25=1,30=1,70=32201,72=1,74=-5,75=-5,124=41,140=2/1,2,3,8;
 4/4=81920/1;
 5/4=81920,5=2,8=3,13=1,38=5,53=1/2,8;
 8/4=81920,6=1,10=1,108=5/1;
 9/4=81920,9=3,41=5,42=1,48=3,70=2/14;
 6/4=81920,7=2,8=2,9=2,10=2/1;
 99/4=81920,5=1,9=1/99;
 ----------------------------------------------
 tBut_Ru_T_Crossing_region_Interpol_struc_2_5_T
 ----------------------------------------------
 Symbolic Z-matrix:
 Charge =  0 Multiplicity = 3
 O                     0.00247  -0.44254  -1.99699 
 P                    -2.48949  -0.16189   0.0992 
 O                    -0.0251   -3.62684  -0.0004 
 N                     0.00034   1.53339  -0.00221 
 C                    -2.28188   1.46382   0.96914 
 H                    -3.20035   2.06563   0.92509 
 H                    -2.12302   1.18615   2.02447 
 O                    -0.00793  -0.44209   1.99303 
 P                     2.49109  -0.16758  -0.09688 
 C                    -1.09959   2.24923   0.45652 
 C                    -1.11423   3.6311    0.45534 
 H                    -2.00855   4.1436    0.81826 
 C                     0.00497   4.36846  -0.00377 
 H                     0.00668   5.45941  -0.00456 
 C                     1.12186   3.62695  -0.46177 
 H                     2.01787   4.13618  -0.82514 
 C                     1.10291   2.24509  -0.4613 
 C                     2.28309   1.45542  -0.97221 
 H                     3.20239   2.05625  -0.93224 
 H                     2.12194   1.17347  -2.02604 
 C                    -3.59833  -1.20122   1.24712 
 C                    -3.38691   0.24557  -1.53053 
 C                    -2.73884  -1.75272   2.39652 
 H                    -3.39262  -2.34099   3.06141 
 H                    -2.2787   -0.95586   2.99461 
 H                    -1.94696  -2.42018   2.02934 
 C                    -4.1574   -2.4016    0.46833 
 H                    -4.65035  -3.08522   1.17894 
 H                    -3.35572  -2.96416  -0.03508 
 H                    -4.90482  -2.11039  -0.28081 
 Ru                   -0.00456  -0.61266  -0.00212 
 C                    -4.73741  -0.37383   1.86385 
 H                    -5.33247  -1.03109   2.52019 
 H                    -5.41626   0.04921   1.11536 
 H                    -4.35072   0.44625   2.4863 
 C                    -3.28888  -0.96406  -2.47531 
 H                    -3.7218   -0.68978  -3.4519 
 H                    -3.83965  -1.83595  -2.10175 
 H                    -2.24241  -1.25454  -2.63776 
 C                    -2.66404   1.44191  -2.17663 
 H                    -3.10039   1.60716  -3.17583 
 H                    -1.59078   1.25673  -2.29754 
 H                    -2.80127   2.3647   -1.59724 
 C                    -4.85625   0.63928  -1.32833 
 H                    -5.2622    0.97659  -2.29704 
 H                    -4.96431   1.47166  -0.61708 
 H                    -5.47724  -0.19896  -0.98751 
 C                     3.59904  -1.20956  -1.24323 
 C                     3.38962   0.24643   1.53054 
 C                     4.16076  -2.40692  -0.46175 
 H                     4.65251  -3.09268  -1.17115 
 H                     3.36078  -2.96833   0.04563 
 H                     4.9098   -2.11242   0.28453 
 C                     4.73644  -0.38393  -1.86535 
 H                     5.33057  -1.04325  -2.52048 
 H                     5.41655   0.04208  -1.11964 
 H                     4.34824   0.43376  -2.48998 
 C                     2.73658  -1.76515  -2.38848 
 H                     3.38828  -2.35594  -3.05319 
 H                     2.27481  -0.97031  -2.98806 
 H                     1.94537  -2.43093  -2.01667 
 C                     3.29574  -0.96082   2.47877 
 H                     3.7285   -0.68252   3.45431 
 H                     3.84876  -1.83222   2.10743 
 H                     2.25019  -1.25389   2.64283 
 C                     2.66374   1.44224   2.17427 
 H                     3.09977   1.61097   3.17303 
 H                     1.59092   1.2543    2.29571 
 H                     2.7982    2.36411   1.5928 
 C                     4.85767   0.64331   1.32557 
 H                     5.26417   0.98441   2.29275 
 H                     4.96284   1.47385   0.61172 
 H                     5.48017  -0.19447   0.9863 
 C                    -0.01519  -2.46371  -0.00145 
 H                    -0.05891  -1.31314   2.40936 
 H                     0.03988  -1.31436  -2.4132 
 
 Stoichiometry    C24H45NO3P2Ru(3)
 Framework group  C1[X(C24H45NO3P2Ru)]
 Deg. of freedom   222
 Full point group                 C1      NOp   1
 Largest Abelian subgroup         C1      NOp   1
 Largest concise Abelian subgroup C1      NOp   1
                         Standard orientation:                         
 ---------------------------------------------------------------------
 Center     Atomic      Atomic             Coordinates (Angstroms)
 Number     Number       Type             X           Y           Z
 ---------------------------------------------------------------------
      1          8           0        0.002258   -0.394641   -1.996448
      2         15           0       -2.488363   -0.113041    0.101208
      3          8           0       -0.024465   -3.578329    0.001121
      4          7           0        0.001616    1.581892   -0.002269
      5          6           0       -2.280003    1.512904    0.970524
      6          1           0       -3.198427    2.114819    0.926866
      7          1           0       -2.120517    1.235536    2.025833
      8          8           0       -0.005649   -0.392978    1.993572
      9         15           0        2.492093   -0.119415   -0.097980
     10          6           0       -1.097934    2.298013    0.456928
     11          6           0       -1.112398    3.679881    0.455333
     12          1           0       -2.006432    4.192602    0.818661
     13          6           0        0.006604    4.416966   -0.004699
     14          1           0        0.008447    5.507907   -0.005820
     15          6           0        1.123119    3.675171   -0.463171
     16          1           0        2.018963    4.184178   -0.827256
     17          6           0        1.103987    2.293316   -0.462268
     18          6           0        2.283757    1.503345   -0.973680
     19          1           0        3.203150    2.104072   -0.934464
     20          1           0        2.121906    1.221093   -2.027317
     21          6           0       -3.596608   -1.151887    1.250133
     22          6           0       -3.386750    0.294036   -1.528085
     23          6           0       -2.736467   -1.703139    2.399173
     24          1           0       -3.389906   -2.291133    3.064647
     25          1           0       -2.275859   -0.906160    2.996731
     26          1           0       -1.944902   -2.370812    2.031698
     27          6           0       -4.156315   -2.352433    0.472063
     28          1           0       -4.648913   -3.035777    1.183193
     29          1           0       -3.355028   -2.915246   -0.031677
     30          1           0       -4.904170   -2.061357   -0.276696
     31         44           0       -0.003552   -0.564152   -0.001530
     32          6           0       -4.735197   -0.324167    1.867328
     33          1           0       -5.329931   -0.981149    2.524242
     34          1           0       -5.414463    0.098729    1.119138
     35          1           0       -4.348024    0.496055    2.489282
     36          6           0       -3.289456   -0.915899   -2.472556
     37          1           0       -3.722952   -0.641860   -3.448959
     38          1           0       -3.840099   -1.787603   -2.098391
     39          1           0       -2.243125   -1.206560   -2.635576
     40          6           0       -2.664134    1.490085   -2.175003
     41          1           0       -3.101082    1.655089   -3.173979
     42          1           0       -1.590967    1.304732   -2.296523
     43          1           0       -2.800881    2.413073   -1.595808
     44          6           0       -4.855910    0.687990   -1.325082
     45          1           0       -5.262423    1.025049   -2.293648
     46          1           0       -4.963426    1.520602   -0.614021
     47          1           0       -5.476792   -0.150073   -0.983622
     48          6           0        3.599201   -1.161886   -1.244703
     49          6           0        3.391695    0.294976    1.528753
     50          6           0        4.161256   -2.359081   -0.463210
     51          1           0        4.652478   -3.045119   -1.172711
     52          1           0        3.361524   -2.920238    0.044841
     53          1           0        4.910799   -2.064446    0.282505
     54          6           0        4.736315   -0.336592   -1.867792
     55          1           0        5.329955   -0.996182   -2.523092
     56          1           0        5.416943    0.089560   -1.122637
     57          1           0        4.347828    0.480959   -2.492425
     58          6           0        2.735958   -1.717712   -2.389249
     59          1           0        3.387168   -2.308796   -3.054190
     60          1           0        2.273912   -0.922997   -2.988778
     61          1           0        1.944895   -2.383280   -2.016738
     62          6           0        3.298256   -0.911979    2.477410
     63          1           0        3.731658   -0.633427    3.452586
     64          1           0        3.850932   -1.783559    2.105987
     65          1           0        2.252774   -1.204861    2.642206
     66          6           0        2.666370    1.491070    2.172567
     67          1           0        3.103045    1.660051    3.171005
     68          1           0        1.593603    1.303306    2.294741
     69          1           0        2.800578    2.412750    1.590737
     70          6           0        4.859669    0.691612    1.322739
     71          1           0        5.266810    1.032956    2.289561
     72          1           0        4.964499    1.521918    0.608578
     73          1           0        5.481851   -0.146353    0.983334
     74          6           0       -0.014409   -2.415208   -0.000285
     75          1           0       -0.056475   -1.263894    2.410201
     76          1           0        0.039300   -1.266592   -2.412419
 ---------------------------------------------------------------------
 Rotational constants (GHZ):           0.1958214           0.1034298           0.0917219
 Standard basis: def2SVP (5D, 7F)
 There are   719 symmetry adapted cartesian basis functions of A   symmetry.
 There are   684 symmetry adapted basis functions of A   symmetry.
   684 basis functions,  1154 primitive gaussians,   719 cartesian basis functions
   134 alpha electrons      132 beta electrons
       nuclear repulsion energy      4488.6583470215 Hartrees.
 NAtoms=   76 NActive=   76 NUniq=   76 SFac= 1.00D+00 NAtFMM=   60 NAOKFM=T Big=T
 Integral buffers will be    131072 words long.
 Regular integral format.
 Two-electron integral symmetry is turned on.
 Nuclear repulsion after empirical dispersion term =     4488.4415117905 Hartrees.
 Force iterative solution in PCM.
 ------------------------------------------------------------------------------
 Polarizable Continuum Model (PCM)
 =================================
 Model                : PCM.
 Atomic radii         : SMD-Coulomb.
 Polarization charges : Total charges.
 Charge compensation  : None.
 Solution method      : Iterative solution.
 Cavity type          : VdW (van der Waals Surface) (Alpha=1.000).
 Cavity algorithm     : GePol (No added spheres)
                        Default sphere list used, NSphG=   76.
                        Lebedev-Laikov grids with approx.  5.0 points / Ang**2.
                        Smoothing algorithm: York/Karplus (Gamma=1.0000).
                        Polarization charges: spherical gaussians, with
                                              point-specific exponents (IZeta= 3).
                        Self-potential: point-specific (ISelfS= 7).
                        Self-field    : sphere-specific E.n sum rule (ISelfD= 2).
 Solvent              : Water, Eps=  78.355300 Eps(inf)=   1.777849
 ------------------------------------------------------------------------------
 ------------------------------------------------------------------------------
 Atomic radii for non-electrostatic terms: SMD-CDS.
 ------------------------------------------------------------------------------
 Nuclear repulsion after PCM non-electrostatic terms =     4488.4620665669 Hartrees.
 One-electron integrals computed using PRISM.
   1 Symmetry operations used in ECPInt.
 ECPInt:  NShTT=   54615 NPrTT=  190596 LenC2=   47836 LenP2D=  112984.
 LDataN:  DoStor=T MaxTD1= 7 Len=  274
 NBasis=   684 RedAO= T EigKep=  5.07D-04  NBF=   684
 NBsUse=   684 1.00D-06 EigRej= -1.00D+00 NBFU=   684
 Defaulting to unpruned grid for atomic number  44.
 ExpMin= 3.92D-02 ExpMax= 8.00D+03 ExpMxC= 1.20D+03 IAcc=3 IRadAn=         5 AccDes= 0.00D+00
 Harris functional with IExCor=  402 and IRadAn=       5 diagonalized for initial guess.
 HarFok:  IExCor=  402 AccDes= 0.00D+00 IRadAn=         5 IDoV= 1 UseB2=F ITyADJ=14
 ICtDFT=  3500011 ScaDFX=  1.000000  1.000000  1.000000  1.000000
 Defaulting to unpruned grid for atomic number  44.
 FoFCou: FMM=F IPFlag=           0 FMFlag=      100000 FMFlg1=        2001
         NFxFlg=           0 DoJE=T BraDBF=F KetDBF=T FulRan=T
         wScrn=  0.000000 ICntrl=       500 IOpCl=  0 I1Cent=   200000004 NGrid=           0
         NMat0=    1 NMatS0=      1 NMatT0=    0 NMatD0=    1 NMtDS0=    0 NMtDT0=    0
 Petite list used in FoFCou.
 Initial guess <Sx>= 0.0000 <Sy>= 0.0000 <Sz>= 1.0000 <S**2>= 2.0000 S= 1.0000
 Requested convergence on RMS density matrix=1.00D-08 within  32 cycles.
 Requested convergence on MAX density matrix=1.00D-06.
 Requested convergence on             energy=1.00D-06.
 No special actions if energy rises.
 Defaulting to unpruned grid for atomic number  44.
 Defaulting to unpruned grid for atomic number  44.
 Defaulting to unpruned grid for atomic number  44.
 Defaulting to unpruned grid for atomic number  44.
 Defaulting to unpruned grid for atomic number  44.
 Defaulting to unpruned grid for atomic number  44.
 Defaulting to unpruned grid for atomic number  44.
 Defaulting to unpruned grid for atomic number  44.
 Defaulting to unpruned grid for atomic number  44.
 Defaulting to unpruned grid for atomic number  44.
 Defaulting to unpruned grid for atomic number  44.
 Defaulting to unpruned grid for atomic number  44.
 Defaulting to unpruned grid for atomic number  44.
 Defaulting to unpruned grid for atomic number  44.
 Defaulting to unpruned grid for atomic number  44.
 Defaulting to unpruned grid for atomic number  44.
 Defaulting to unpruned grid for atomic number  44.
 Defaulting to unpruned grid for atomic number  44.
 Defaulting to unpruned grid for atomic number  44.
 Defaulting to unpruned grid for atomic number  44.
 Defaulting to unpruned grid for atomic number  44.
 Defaulting to unpruned grid for atomic number  44.
 Defaulting to unpruned grid for atomic number  44.
 Defaulting to unpruned grid for atomic number  44.
 QICG: NIter= 146, all vectors converged, nQ=   1 QEMax= 8.94D-07
 QICG: NIter= 148, all vectors converged, nQ=   1 QEMax= 9.92D-07
 QICG: NIter= 146, all vectors converged, nQ=   1 QEMax= 8.52D-07
 QICG: NIter= 151, all vectors converged, nQ=   1 QEMax= 6.48D-07
 QICG: NIter= 151, all vectors converged, nQ=   1 QEMax= 8.29D-07
 QICG: NIter= 149, all vectors converged, nQ=   1 QEMax= 6.04D-07
 QICG: NIter= 143, all vectors converged, nQ=   1 QEMax= 8.34D-07
 QICG: NIter= 140, all vectors converged, nQ=   1 QEMax= 8.85D-07
 QICG: NIter= 134, all vectors converged, nQ=   1 QEMax= 8.99D-07
 QICG: NIter= 135, all vectors converged, nQ=   1 QEMax= 6.91D-07
 QICG: NIter= 127, all vectors converged, nQ=   1 QEMax= 8.32D-07
 QICG: NIter=  92, all vectors converged, nQ=   1 QEMax= 1.00D-06
 QICG: NIter=  91, all vectors converged, nQ=   1 QEMax= 9.18D-07
 QICG: NIter=  91, all vectors converged, nQ=   1 QEMax= 7.54D-07
 QICG: NIter=  71, all vectors converged, nQ=   1 QEMax= 9.71D-07
 QICG: NIter=  17, all vectors converged, nQ=   1 QEMax= 7.42D-07
 QICG: NIter=  17, all vectors converged, nQ=   1 QEMax= 8.67D-07
 QICG: NIter=  12, all vectors converged, nQ=   1 QEMax= 9.46D-07
 QICG: NIter=  12, all vectors converged, nQ=   1 QEMax= 6.64D-07
 QICG: NIter=   9, all vectors converged, nQ=   1 QEMax= 9.93D-07
 Restarting incremental Fock formation.
 QICG: NIter=   9, all vectors converged, nQ=   1 QEMax= 9.94D-07
 QICG: NIter=   9, all vectors converged, nQ=   1 QEMax= 8.26D-07
 QICG: NIter=   6, all vectors converged, nQ=   1 QEMax= 8.92D-07
 QICG: NIter=   3, all vectors converged, nQ=   1 QEMax= 9.03D-07
 QICG: NIter=   1, all vectors converged, nQ=   1 QEMax= 7.82D-07
 QICG: NIter=   0, all vectors converged, nQ=   1 QEMax= 7.10D-07
 Error on total polarization charges =  0.08073
 SCF Done:  E(UB3LYP) =  -1998.92674153     A.U. after   25 cycles
            NFock= 25  Conv=0.25D-08     -V/T= 2.0404
 <Sx>= 0.0000 <Sy>= 0.0000 <Sz>= 1.0000 <S**2>= 2.0173 S= 1.0058
 <L.S>=  0.00000000000    
 SMD-CDS (non-electrostatic) energy       (kcal/mol) =      12.90
 (included in total energy above)
 Annihilation of the first spin contaminant:
 S**2 before annihilation     2.0173,   after     2.0002
 QCSCF skips out because SCF is already converged.
 DoSCS=F DFT=T ScalE2(SS,OS)=  1.000000  1.000000
 ExpMin= 3.92D-02 ExpMax= 8.00D+03 ExpMxC= 1.20D+03 IAcc=3 IRadAn=         5 AccDes= 0.00D+00
 HarFok:  IExCor=  205 AccDes= 0.00D+00 IRadAn=         5 IDoV=-2 UseB2=F ITyADJ=14
 ICtDFT= 12500011 ScaDFX=  1.000000  1.000000  1.000000  1.000000
 Defaulting to unpruned grid for atomic number  44.
 GSVD:  LWork=       -2100 too small for GESVD, short by        9450 words or        9450 for optimal perf.
 Range of M.O.s used for correlation:    43   684
 NBasis=   684 NAE=   134 NBE=   132 NFC=    42 NFV=     0
 NROrb=    642 NOA=    92 NOB=    90 NVA=   550 NVB=   552

 **** Warning!!: The smallest alpha delta epsilon is  0.40146805D-01

 Ignoring spin specification with unrestricted ground state.
 NEqPCM:  Using non-equilibrium solvation (IEInf=1, Eps=  78.3553, EpsInf=   1.7778)
 Orbital symmetries:
 Alpha Orbitals:
       Occupied  (A) (A) (A) (A) (A) (A) (A) (A) (A) (A) (A) (A)
                 (A) (A) (A) (A) (A) (A) (A) (A) (A) (A) (A) (A)
                 (A) (A) (A) (A) (A) (A) (A) (A) (A) (A) (A) (A)
                 (A) (A) (A) (A) (A) (A) (A) (A) (A) (A) (A) (A)
                 (A) (A) (A) (A) (A) (A) (A) (A) (A) (A) (A) (A)
                 (A) (A) (A) (A) (A) (A) (A) (A) (A) (A) (A) (A)
                 (A) (A) (A) (A) (A) (A) (A) (A) (A) (A) (A) (A)
                 (A) (A) (A) (A) (A) (A) (A) (A) (A) (A) (A) (A)
                 (A) (A) (A) (A) (A) (A) (A) (A) (A) (A) (A) (A)
                 (A) (A) (A) (A) (A) (A) (A) (A) (A) (A) (A) (A)
                 (A) (A) (A) (A) (A) (A) (A) (A) (A) (A) (A) (A)
                 (A) (A)
       Virtual   (A) (A) (A) (A) (A) (A) (A) (A) (A) (A) (A) (A)
                 (A) (A) (A) (A) (A) (A) (A) (A) (A) (A) (A) (A)
                 (A) (A) (A) (A) (A) (A) (A) (A) (A) (A) (A) (A)
                 (A) (A) (A) (A) (A) (A) (A) (A) (A) (A) (A) (A)
                 (A) (A) (A) (A) (A) (A) (A) (A) (A) (A) (A) (A)
                 (A) (A) (A) (A) (A) (A) (A) (A) (A) (A) (A) (A)
                 (A) (A) (A) (A) (A) (A) (A) (A) (A) (A) (A) (A)
                 (A) (A) (A) (A) (A) (A) (A) (A) (A) (A) (A) (A)
                 (A) (A) (A) (A) (A) (A) (A) (A) (A) (A) (A) (A)
                 (A) (A) (A) (A) (A) (A) (A) (A) (A) (A) (A) (A)
                 (A) (A) (A) (A) (A) (A) (A) (A) (A) (A) (A) (A)
                 (A) (A) (A) (A) (A) (A) (A) (A) (A) (A) (A) (A)
                 (A) (A) (A) (A) (A) (A) (A) (A) (A) (A) (A) (A)
                 (A) (A) (A) (A) (A) (A) (A) (A) (A) (A) (A) (A)
                 (A) (A) (A) (A) (A) (A) (A) (A) (A) (A) (A) (A)
                 (A) (A) (A) (A) (A) (A) (A) (A) (A) (A) (A) (A)
                 (A) (A) (A) (A) (A) (A) (A) (A) (A) (A) (A) (A)
                 (A) (A) (A) (A) (A) (A) (A) (A) (A) (A) (A) (A)
                 (A) (A) (A) (A) (A) (A) (A) (A) (A) (A) (A) (A)
                 (A) (A) (A) (A) (A) (A) (A) (A) (A) (A) (A) (A)
                 (A) (A) (A) (A) (A) (A) (A) (A) (A) (A) (A) (A)
                 (A) (A) (A) (A) (A) (A) (A) (A) (A) (A) (A) (A)
                 (A) (A) (A) (A) (A) (A) (A) (A) (A) (A) (A) (A)
                 (A) (A) (A) (A) (A) (A) (A) (A) (A) (A) (A) (A)
                 (A) (A) (A) (A) (A) (A) (A) (A) (A) (A) (A) (A)
                 (A) (A) (A) (A) (A) (A) (A) (A) (A) (A) (A) (A)
                 (A) (A) (A) (A) (A) (A) (A) (A) (A) (A) (A) (A)
                 (A) (A) (A) (A) (A) (A) (A) (A) (A) (A) (A) (A)
                 (A) (A) (A) (A) (A) (A) (A) (A) (A) (A) (A) (A)
                 (A) (A) (A) (A) (A) (A) (A) (A) (A) (A) (A) (A)
                 (A) (A) (A) (A) (A) (A) (A) (A) (A) (A) (A) (A)
                 (A) (A) (A) (A) (A) (A) (A) (A) (A) (A) (A) (A)
                 (A) (A) (A) (A) (A) (A) (A) (A) (A) (A) (A) (A)
                 (A) (A) (A) (A) (A) (A) (A) (A) (A) (A) (A) (A)
                 (A) (A) (A) (A) (A) (A) (A) (A) (A) (A) (A) (A)
                 (A) (A) (A) (A) (A) (A) (A) (A) (A) (A) (A) (A)
                 (A) (A) (A) (A) (A) (A) (A) (A) (A) (A) (A) (A)
                 (A) (A) (A) (A) (A) (A) (A) (A) (A) (A) (A) (A)
                 (A) (A) (A) (A) (A) (A) (A) (A) (A) (A) (A) (A)
                 (A) (A) (A) (A) (A) (A) (A) (A) (A) (A) (A) (A)
                 (A) (A) (A) (A) (A) (A) (A) (A) (A) (A) (A) (A)
                 (A) (A) (A) (A) (A) (A) (A) (A) (A) (A) (A) (A)
                 (A) (A) (A) (A) (A) (A) (A) (A) (A) (A) (A) (A)
                 (A) (A) (A) (A) (A) (A) (A) (A) (A) (A) (A) (A)
                 (A) (A) (A) (A) (A) (A) (A) (A) (A) (A) (A) (A)
                 (A) (A) (A) (A) (A) (A) (A) (A) (A) (A)
 Beta  Orbitals:
       Occupied  (A) (A) (A) (A) (A) (A) (A) (A) (A) (A) (A) (A)
                 (A) (A) (A) (A) (A) (A) (A) (A) (A) (A) (A) (A)
                 (A) (A) (A) (A) (A) (A) (A) (A) (A) (A) (A) (A)
                 (A) (A) (A) (A) (A) (A) (A) (A) (A) (A) (A) (A)
                 (A) (A) (A) (A) (A) (A) (A) (A) (A) (A) (A) (A)
                 (A) (A) (A) (A) (A) (A) (A) (A) (A) (A) (A) (A)
                 (A) (A) (A) (A) (A) (A) (A) (A) (A) (A) (A) (A)
                 (A) (A) (A) (A) (A) (A) (A) (A) (A) (A) (A) (A)
                 (A) (A) (A) (A) (A) (A) (A) (A) (A) (A) (A) (A)
                 (A) (A) (A) (A) (A) (A) (A) (A) (A) (A) (A) (A)
                 (A) (A) (A) (A) (A) (A) (A) (A) (A) (A) (A) (A)
       Virtual   (A) (A) (A) (A) (A) (A) (A) (A) (A) (A) (A) (A)
                 (A) (A) (A) (A) (A) (A) (A) (A) (A) (A) (A) (A)
                 (A) (A) (A) (A) (A) (A) (A) (A) (A) (A) (A) (A)
                 (A) (A) (A) (A) (A) (A) (A) (A) (A) (A) (A) (A)
                 (A) (A) (A) (A) (A) (A) (A) (A) (A) (A) (A) (A)
                 (A) (A) (A) (A) (A) (A) (A) (A) (A) (A) (A) (A)
                 (A) (A) (A) (A) (A) (A) (A) (A) (A) (A) (A) (A)
                 (A) (A) (A) (A) (A) (A) (A) (A) (A) (A) (A) (A)
                 (A) (A) (A) (A) (A) (A) (A) (A) (A) (A) (A) (A)
                 (A) (A) (A) (A) (A) (A) (A) (A) (A) (A) (A) (A)
                 (A) (A) (A) (A) (A) (A) (A) (A) (A) (A) (A) (A)
                 (A) (A) (A) (A) (A) (A) (A) (A) (A) (A) (A) (A)
                 (A) (A) (A) (A) (A) (A) (A) (A) (A) (A) (A) (A)
                 (A) (A) (A) (A) (A) (A) (A) (A) (A) (A) (A) (A)
                 (A) (A) (A) (A) (A) (A) (A) (A) (A) (A) (A) (A)
                 (A) (A) (A) (A) (A) (A) (A) (A) (A) (A) (A) (A)
                 (A) (A) (A) (A) (A) (A) (A) (A) (A) (A) (A) (A)
                 (A) (A) (A) (A) (A) (A) (A) (A) (A) (A) (A) (A)
                 (A) (A) (A) (A) (A) (A) (A) (A) (A) (A) (A) (A)
                 (A) (A) (A) (A) (A) (A) (A) (A) (A) (A) (A) (A)
                 (A) (A) (A) (A) (A) (A) (A) (A) (A) (A) (A) (A)
                 (A) (A) (A) (A) (A) (A) (A) (A) (A) (A) (A) (A)
                 (A) (A) (A) (A) (A) (A) (A) (A) (A) (A) (A) (A)
                 (A) (A) (A) (A) (A) (A) (A) (A) (A) (A) (A) (A)
                 (A) (A) (A) (A) (A) (A) (A) (A) (A) (A) (A) (A)
                 (A) (A) (A) (A) (A) (A) (A) (A) (A) (A) (A) (A)
                 (A) (A) (A) (A) (A) (A) (A) (A) (A) (A) (A) (A)
                 (A) (A) (A) (A) (A) (A) (A) (A) (A) (A) (A) (A)
                 (A) (A) (A) (A) (A) (A) (A) (A) (A) (A) (A) (A)
                 (A) (A) (A) (A) (A) (A) (A) (A) (A) (A) (A) (A)
                 (A) (A) (A) (A) (A) (A) (A) (A) (A) (A) (A) (A)
                 (A) (A) (A) (A) (A) (A) (A) (A) (A) (A) (A) (A)
                 (A) (A) (A) (A) (A) (A) (A) (A) (A) (A) (A) (A)
                 (A) (A) (A) (A) (A) (A) (A) (A) (A) (A) (A) (A)
                 (A) (A) (A) (A) (A) (A) (A) (A) (A) (A) (A) (A)
                 (A) (A) (A) (A) (A) (A) (A) (A) (A) (A) (A) (A)
                 (A) (A) (A) (A) (A) (A) (A) (A) (A) (A) (A) (A)
                 (A) (A) (A) (A) (A) (A) (A) (A) (A) (A) (A) (A)
                 (A) (A) (A) (A) (A) (A) (A) (A) (A) (A) (A) (A)
                 (A) (A) (A) (A) (A) (A) (A) (A) (A) (A) (A) (A)
                 (A) (A) (A) (A) (A) (A) (A) (A) (A) (A) (A) (A)
                 (A) (A) (A) (A) (A) (A) (A) (A) (A) (A) (A) (A)
                 (A) (A) (A) (A) (A) (A) (A) (A) (A) (A) (A) (A)
                 (A) (A) (A) (A) (A) (A) (A) (A) (A) (A) (A) (A)
                 (A) (A) (A) (A) (A) (A) (A) (A) (A) (A) (A) (A)
                 (A) (A) (A) (A) (A) (A) (A) (A) (A) (A) (A) (A)
    20 initial guesses have been made.
 Convergence on wavefunction:    0.001000000000000
 Iteration     1 Dimension    20 NMult     0 NNew     20
 CISAX will form    20 AO SS matrices at one time.
 Defaulting to unpruned grid for atomic number  44.
 Defaulting to unpruned grid for atomic number  44.
 Defaulting to unpruned grid for atomic number  44.
 Defaulting to unpruned grid for atomic number  44.
 Defaulting to unpruned grid for atomic number  44.
 Defaulting to unpruned grid for atomic number  44.
 Defaulting to unpruned grid for atomic number  44.
 Defaulting to unpruned grid for atomic number  44.
 Defaulting to unpruned grid for atomic number  44.
 Defaulting to unpruned grid for atomic number  44.
 Defaulting to unpruned grid for atomic number  44.
 Defaulting to unpruned grid for atomic number  44.
 Defaulting to unpruned grid for atomic number  44.
 Defaulting to unpruned grid for atomic number  44.
 Defaulting to unpruned grid for atomic number  44.
 Defaulting to unpruned grid for atomic number  44.
 Defaulting to unpruned grid for atomic number  44.
 Defaulting to unpruned grid for atomic number  44.
 Defaulting to unpruned grid for atomic number  44.
 Defaulting to unpruned grid for atomic number  44.
 Defaulting to unpruned grid for atomic number  44.
 Defaulting to unpruned grid for atomic number  44.
 Defaulting to unpruned grid for atomic number  44.
 Defaulting to unpruned grid for atomic number  44.
 New state      2 was old state      3
 New state      3 was old state      6
 New state      5 was old state      2
 Iteration     2 Dimension    30 NMult    20 NNew     10
 New state      4 was old state      5
 New state      5 was old state      4
 Iteration     3 Dimension    40 NMult    30 NNew     10
 Iteration     4 Dimension    50 NMult    40 NNew     10
 Iteration     5 Dimension    60 NMult    50 NNew     10
 Iteration     6 Dimension    68 NMult    60 NNew      8
 Iteration     7 Dimension    70 NMult    68 NNew      2
 ***********************************************************************
 Excited states from <AA,BB:AA,BB> singles matrix:
 ***********************************************************************
 
 ExtSpn:  IState=     1 X2= 1.001 Y2= 0.001 X2-Y2-1= 0.00D+00
          S2Grnd=  2.017 Ra=  0.007 Rb= -0.000 T=  0.001 S2Ext=  0.008 S2=  2.025
 ExtSpn:  IState=     2 X2= 1.009 Y2= 0.009 X2-Y2-1= 4.44D-16
          S2Grnd=  2.017 Ra=  0.002 Rb=  0.003 T=  0.002 S2Ext=  0.006 S2=  2.023
 ExtSpn:  IState=     3 X2= 1.004 Y2= 0.004 X2-Y2-1= 2.22D-16
          S2Grnd=  2.017 Ra=  0.001 Rb=  0.001 T= -0.004 S2Ext= -0.002 S2=  2.016
 ExtSpn:  IState=     4 X2= 1.005 Y2= 0.005 X2-Y2-1= 4.44D-16
          S2Grnd=  2.017 Ra=  0.009 Rb=  0.005 T=  0.004 S2Ext=  0.017 S2=  2.035
 ExtSpn:  IState=     5 X2= 1.001 Y2= 0.001 X2-Y2-1=-7.77D-16
          S2Grnd=  2.017 Ra=  0.009 Rb=  0.000 T=  0.002 S2Ext=  0.011 S2=  2.028
 Ground to excited state transition densities written to RWF  633
 Ground to excited state transition electric dipole moments (Au):
       state          X           Y           Z        Dip. S.      Osc.
         1        -0.1795      0.0064      0.0354      0.0335      0.0002
         2        -0.2269      0.0006      0.0746      0.0570      0.0014
         3        -0.0297      0.0004      0.0015      0.0009      0.0000
         4         0.0040      1.0659      0.0023      1.1362      0.0398
         5         0.0376      0.0323     -0.1291      0.0191      0.0007
 Ground to excited state transition velocity dipole moments (Au):
       state          X           Y           Z        Dip. S.      Osc.
         1         0.0030     -0.0000      0.0097      0.0001      0.0065
         2         0.0130     -0.0002      0.0049      0.0002      0.0034
         3         0.0034      0.0001     -0.0002      0.0000      0.0002
         4         0.0003     -0.0548      0.0018      0.0030      0.0381
         5        -0.0036     -0.0019      0.0005      0.0000      0.0002
 Ground to excited state transition magnetic dipole moments (Au):
       state          X           Y           Z
         1         0.0383      0.0013     -0.0875
         2        -0.4924     -0.0006     -1.1934
         3         0.0380     -0.0012     -0.8458
         4        -0.0007     -0.0034     -0.0062
         5         0.1411      0.0046      0.1356
 Ground to excited state transition velocity quadrupole moments (Au):
       state          XX          YY          ZZ          XY          XZ          YZ
         1        -0.0108     -0.0152     -0.0112      0.0298     -0.0006      0.0151
         2        -0.0065     -0.0099     -0.0065      0.0056     -0.0001     -0.0043
         3         0.0019      0.0010      0.0012      0.0044     -0.0001      0.0025
         4        -0.0331     -0.2281     -0.0090      0.0032      0.0009      0.0060
         5        -0.0033     -0.0121     -0.0036      0.0052      0.0001     -0.0132
 <0|del|b> * <b|rxdel|0> + <0|del|b> * <b|delr+rdel|0>
 Rotatory Strengths (R) in cgs (10**-40 erg-esu-cm/Gauss)
       state          XX          YY          ZZ    R(velocity)    E-M Angle
         1       -18.5717    -32.3597      2.3362    -16.1984      138.96
         2       -54.4011   -115.7791    -59.8167    -76.6656      132.91
         3         0.9744      1.9947      0.8852      1.2848       84.77
         4         1.5506     -0.1039      0.9152      0.7873       63.37
         5         0.3461     -2.5500     -3.5797     -1.9279      124.76
 1/2[<0|r|b>*<b|rxdel|0> + (<0|rxdel|b>*<b|r|0>)*]
 Rotatory Strengths (R) in cgs (10**-40 erg-esu-cm/Gauss)
       state          XX          YY          ZZ     R(length)
         1         4.8652     -0.0059      2.1896      2.3496
         2       -78.9944      0.0003     62.9937     -5.3335
         3         0.7980      0.0004      0.9032      0.5672
         4         0.0019      2.5701      0.0099      0.8606
         5        -3.7499     -0.1042     12.3845      2.8434
  1/2[<0|del|b>*<b|r|0> + (<0|r|b>*<b|del|0>)*] (Au)
       state          X           Y           Z        Dip. S.   Osc.(frdel)
         1        -0.0005     -0.0000      0.0003      0.0002      0.0001
         2        -0.0030     -0.0000      0.0004      0.0026      0.0017
         3        -0.0001      0.0000     -0.0000      0.0001      0.0001
         4         0.0000     -0.0584      0.0000      0.0584      0.0389
         5        -0.0001     -0.0001     -0.0001      0.0003      0.0002

 Excitation energies and oscillator strengths:
 
 Excited State   1:  3.017-A      0.2913 eV 4255.72 nm  f=0.0002  <S**2>=2.025
    134A ->135A        0.99787
 This state for optimization and/or second-order correction.
 Total Energy, E(TD-HF/TD-DFT) =  -1998.91603517    
 Copying the excited state density for this state as the 1-particle RhoCI density.
 
 Excited State   2:  3.016-A      1.0229 eV 1212.12 nm  f=0.0014  <S**2>=2.023
    134A ->137A        0.99387
 
 Excited State   3:  3.010-A      1.3061 eV  949.27 nm  f=0.0000  <S**2>=2.016
    128B ->133B        0.11820
    129B ->133B        0.32254
    131B ->133B        0.62831
    132B ->133B        0.68863
 
 Excited State   4:  3.023-A      1.4291 eV  867.56 nm  f=0.0398  <S**2>=2.035
    134A ->136A        0.99048
 
 Excited State   5:  3.019-A      1.5280 eV  811.44 nm  f=0.0007  <S**2>=2.028
    134A ->138A        0.96150
    134A ->139A       -0.23836
 SavETr:  write IOETrn=   770 NScale= 10 NData=  16 NLR=1 NState=    5 LETran=     100.

 **********************************************************************

            Population analysis using the SCF Density.

 **********************************************************************

 Orbital symmetries:
 Alpha Orbitals:
       Occupied  (A) (A) (A) (A) (A) (A) (A) (A) (A) (A) (A) (A)
                 (A) (A) (A) (A) (A) (A) (A) (A) (A) (A) (A) (A)
                 (A) (A) (A) (A) (A) (A) (A) (A) (A) (A) (A) (A)
                 (A) (A) (A) (A) (A) (A) (A) (A) (A) (A) (A) (A)
                 (A) (A) (A) (A) (A) (A) (A) (A) (A) (A) (A) (A)
                 (A) (A) (A) (A) (A) (A) (A) (A) (A) (A) (A) (A)
                 (A) (A) (A) (A) (A) (A) (A) (A) (A) (A) (A) (A)
                 (A) (A) (A) (A) (A) (A) (A) (A) (A) (A) (A) (A)
                 (A) (A) (A) (A) (A) (A) (A) (A) (A) (A) (A) (A)
                 (A) (A) (A) (A) (A) (A) (A) (A) (A) (A) (A) (A)
                 (A) (A) (A) (A) (A) (A) (A) (A) (A) (A) (A) (A)
                 (A) (A)
       Virtual   (A) (A) (A) (A) (A) (A) (A) (A) (A) (A) (A) (A)
                 (A) (A) (A) (A) (A) (A) (A) (A) (A) (A) (A) (A)
                 (A) (A) (A) (A) (A) (A) (A) (A) (A) (A) (A) (A)
                 (A) (A) (A) (A) (A) (A) (A) (A) (A) (A) (A) (A)
                 (A) (A) (A) (A) (A) (A) (A) (A) (A) (A) (A) (A)
                 (A) (A) (A) (A) (A) (A) (A) (A) (A) (A) (A) (A)
                 (A) (A) (A) (A) (A) (A) (A) (A) (A) (A) (A) (A)
                 (A) (A) (A) (A) (A) (A) (A) (A) (A) (A) (A) (A)
                 (A) (A) (A) (A) (A) (A) (A) (A) (A) (A) (A) (A)
                 (A) (A) (A) (A) (A) (A) (A) (A) (A) (A) (A) (A)
                 (A) (A) (A) (A) (A) (A) (A) (A) (A) (A) (A) (A)
                 (A) (A) (A) (A) (A) (A) (A) (A) (A) (A) (A) (A)
                 (A) (A) (A) (A) (A) (A) (A) (A) (A) (A) (A) (A)
                 (A) (A) (A) (A) (A) (A) (A) (A) (A) (A) (A) (A)
                 (A) (A) (A) (A) (A) (A) (A) (A) (A) (A) (A) (A)
                 (A) (A) (A) (A) (A) (A) (A) (A) (A) (A) (A) (A)
                 (A) (A) (A) (A) (A) (A) (A) (A) (A) (A) (A) (A)
                 (A) (A) (A) (A) (A) (A) (A) (A) (A) (A) (A) (A)
                 (A) (A) (A) (A) (A) (A) (A) (A) (A) (A) (A) (A)
                 (A) (A) (A) (A) (A) (A) (A) (A) (A) (A) (A) (A)
                 (A) (A) (A) (A) (A) (A) (A) (A) (A) (A) (A) (A)
                 (A) (A) (A) (A) (A) (A) (A) (A) (A) (A) (A) (A)
                 (A) (A) (A) (A) (A) (A) (A) (A) (A) (A) (A) (A)
                 (A) (A) (A) (A) (A) (A) (A) (A) (A) (A) (A) (A)
                 (A) (A) (A) (A) (A) (A) (A) (A) (A) (A) (A) (A)
                 (A) (A) (A) (A) (A) (A) (A) (A) (A) (A) (A) (A)
                 (A) (A) (A) (A) (A) (A) (A) (A) (A) (A) (A) (A)
                 (A) (A) (A) (A) (A) (A) (A) (A) (A) (A) (A) (A)
                 (A) (A) (A) (A) (A) (A) (A) (A) (A) (A) (A) (A)
                 (A) (A) (A) (A) (A) (A) (A) (A) (A) (A) (A) (A)
                 (A) (A) (A) (A) (A) (A) (A) (A) (A) (A) (A) (A)
                 (A) (A) (A) (A) (A) (A) (A) (A) (A) (A) (A) (A)
                 (A) (A) (A) (A) (A) (A) (A) (A) (A) (A) (A) (A)
                 (A) (A) (A) (A) (A) (A) (A) (A) (A) (A) (A) (A)
                 (A) (A) (A) (A) (A) (A) (A) (A) (A) (A) (A) (A)
                 (A) (A) (A) (A) (A) (A) (A) (A) (A) (A) (A) (A)
                 (A) (A) (A) (A) (A) (A) (A) (A) (A) (A) (A) (A)
                 (A) (A) (A) (A) (A) (A) (A) (A) (A) (A) (A) (A)
                 (A) (A) (A) (A) (A) (A) (A) (A) (A) (A) (A) (A)
                 (A) (A) (A) (A) (A) (A) (A) (A) (A) (A) (A) (A)
                 (A) (A) (A) (A) (A) (A) (A) (A) (A) (A) (A) (A)
                 (A) (A) (A) (A) (A) (A) (A) (A) (A) (A) (A) (A)
                 (A) (A) (A) (A) (A) (A) (A) (A) (A) (A) (A) (A)
                 (A) (A) (A) (A) (A) (A) (A) (A) (A) (A) (A) (A)
                 (A) (A) (A) (A) (A) (A) (A) (A) (A) (A) (A) (A)
                 (A) (A) (A) (A) (A) (A) (A) (A) (A) (A)
 Beta  Orbitals:
       Occupied  (A) (A) (A) (A) (A) (A) (A) (A) (A) (A) (A) (A)
                 (A) (A) (A) (A) (A) (A) (A) (A) (A) (A) (A) (A)
                 (A) (A) (A) (A) (A) (A) (A) (A) (A) (A) (A) (A)
                 (A) (A) (A) (A) (A) (A) (A) (A) (A) (A) (A) (A)
                 (A) (A) (A) (A) (A) (A) (A) (A) (A) (A) (A) (A)
                 (A) (A) (A) (A) (A) (A) (A) (A) (A) (A) (A) (A)
                 (A) (A) (A) (A) (A) (A) (A) (A) (A) (A) (A) (A)
                 (A) (A) (A) (A) (A) (A) (A) (A) (A) (A) (A) (A)
                 (A) (A) (A) (A) (A) (A) (A) (A) (A) (A) (A) (A)
                 (A) (A) (A) (A) (A) (A) (A) (A) (A) (A) (A) (A)
                 (A) (A) (A) (A) (A) (A) (A) (A) (A) (A) (A) (A)
       Virtual   (A) (A) (A) (A) (A) (A) (A) (A) (A) (A) (A) (A)
                 (A) (A) (A) (A) (A) (A) (A) (A) (A) (A) (A) (A)
                 (A) (A) (A) (A) (A) (A) (A) (A) (A) (A) (A) (A)
                 (A) (A) (A) (A) (A) (A) (A) (A) (A) (A) (A) (A)
                 (A) (A) (A) (A) (A) (A) (A) (A) (A) (A) (A) (A)
                 (A) (A) (A) (A) (A) (A) (A) (A) (A) (A) (A) (A)
                 (A) (A) (A) (A) (A) (A) (A) (A) (A) (A) (A) (A)
                 (A) (A) (A) (A) (A) (A) (A) (A) (A) (A) (A) (A)
                 (A) (A) (A) (A) (A) (A) (A) (A) (A) (A) (A) (A)
                 (A) (A) (A) (A) (A) (A) (A) (A) (A) (A) (A) (A)
                 (A) (A) (A) (A) (A) (A) (A) (A) (A) (A) (A) (A)
                 (A) (A) (A) (A) (A) (A) (A) (A) (A) (A) (A) (A)
                 (A) (A) (A) (A) (A) (A) (A) (A) (A) (A) (A) (A)
                 (A) (A) (A) (A) (A) (A) (A) (A) (A) (A) (A) (A)
                 (A) (A) (A) (A) (A) (A) (A) (A) (A) (A) (A) (A)
                 (A) (A) (A) (A) (A) (A) (A) (A) (A) (A) (A) (A)
                 (A) (A) (A) (A) (A) (A) (A) (A) (A) (A) (A) (A)
                 (A) (A) (A) (A) (A) (A) (A) (A) (A) (A) (A) (A)
                 (A) (A) (A) (A) (A) (A) (A) (A) (A) (A) (A) (A)
                 (A) (A) (A) (A) (A) (A) (A) (A) (A) (A) (A) (A)
                 (A) (A) (A) (A) (A) (A) (A) (A) (A) (A) (A) (A)
                 (A) (A) (A) (A) (A) (A) (A) (A) (A) (A) (A) (A)
                 (A) (A) (A) (A) (A) (A) (A) (A) (A) (A) (A) (A)
                 (A) (A) (A) (A) (A) (A) (A) (A) (A) (A) (A) (A)
                 (A) (A) (A) (A) (A) (A) (A) (A) (A) (A) (A) (A)
                 (A) (A) (A) (A) (A) (A) (A) (A) (A) (A) (A) (A)
                 (A) (A) (A) (A) (A) (A) (A) (A) (A) (A) (A) (A)
                 (A) (A) (A) (A) (A) (A) (A) (A) (A) (A) (A) (A)
                 (A) (A) (A) (A) (A) (A) (A) (A) (A) (A) (A) (A)
                 (A) (A) (A) (A) (A) (A) (A) (A) (A) (A) (A) (A)
                 (A) (A) (A) (A) (A) (A) (A) (A) (A) (A) (A) (A)
                 (A) (A) (A) (A) (A) (A) (A) (A) (A) (A) (A) (A)
                 (A) (A) (A) (A) (A) (A) (A) (A) (A) (A) (A) (A)
                 (A) (A) (A) (A) (A) (A) (A) (A) (A) (A) (A) (A)
                 (A) (A) (A) (A) (A) (A) (A) (A) (A) (A) (A) (A)
                 (A) (A) (A) (A) (A) (A) (A) (A) (A) (A) (A) (A)
                 (A) (A) (A) (A) (A) (A) (A) (A) (A) (A) (A) (A)
                 (A) (A) (A) (A) (A) (A) (A) (A) (A) (A) (A) (A)
                 (A) (A) (A) (A) (A) (A) (A) (A) (A) (A) (A) (A)
                 (A) (A) (A) (A) (A) (A) (A) (A) (A) (A) (A) (A)
                 (A) (A) (A) (A) (A) (A) (A) (A) (A) (A) (A) (A)
                 (A) (A) (A) (A) (A) (A) (A) (A) (A) (A) (A) (A)
                 (A) (A) (A) (A) (A) (A) (A) (A) (A) (A) (A) (A)
                 (A) (A) (A) (A) (A) (A) (A) (A) (A) (A) (A) (A)
                 (A) (A) (A) (A) (A) (A) (A) (A) (A) (A) (A) (A)
                 (A) (A) (A) (A) (A) (A) (A) (A) (A) (A) (A) (A)
 The electronic state is 3-A.
 Alpha  occ. eigenvalues --  -77.08037 -77.07972 -19.19530 -19.10252 -19.10233
 Alpha  occ. eigenvalues --  -14.30803 -10.28135 -10.20752 -10.20729 -10.20537
 Alpha  occ. eigenvalues --  -10.20532 -10.20026 -10.20020 -10.18479 -10.18461
 Alpha  occ. eigenvalues --  -10.17488 -10.17480 -10.17345 -10.17344 -10.17336
 Alpha  occ. eigenvalues --  -10.17326 -10.17162 -10.17149 -10.16945 -10.16914
 Alpha  occ. eigenvalues --  -10.16568 -10.16547 -10.16202 -10.16199 -10.15081
 Alpha  occ. eigenvalues --   -6.57243  -6.57181  -4.73831  -4.73799  -4.73770
 Alpha  occ. eigenvalues --   -4.73738  -4.73585  -4.73520  -3.06403  -1.90823
 Alpha  occ. eigenvalues --   -1.90765  -1.88901  -1.09793  -0.92421  -0.91366
 Alpha  occ. eigenvalues --   -0.90425  -0.81876  -0.81637  -0.79470  -0.79460
 Alpha  occ. eigenvalues --   -0.77523  -0.75838  -0.72312  -0.68304  -0.67869
 Alpha  occ. eigenvalues --   -0.67700  -0.67393  -0.67301  -0.66891  -0.66873
 Alpha  occ. eigenvalues --   -0.66545  -0.66525  -0.62784  -0.60968  -0.57751
 Alpha  occ. eigenvalues --   -0.57098  -0.55189  -0.54127  -0.54110  -0.50710
 Alpha  occ. eigenvalues --   -0.50476  -0.48580  -0.47451  -0.46488  -0.46198
 Alpha  occ. eigenvalues --   -0.45829  -0.45351  -0.45258  -0.44677  -0.44394
 Alpha  occ. eigenvalues --   -0.44134  -0.43930  -0.43611  -0.43509  -0.43317
 Alpha  occ. eigenvalues --   -0.43102  -0.42868  -0.42338  -0.42178  -0.41859
 Alpha  occ. eigenvalues --   -0.41697  -0.40550  -0.40534  -0.39799  -0.38970
 Alpha  occ. eigenvalues --   -0.38478  -0.38261  -0.38013  -0.37965  -0.37200
 Alpha  occ. eigenvalues --   -0.37170  -0.37072  -0.37018  -0.36236  -0.35965
 Alpha  occ. eigenvalues --   -0.35818  -0.35609  -0.35581  -0.35064  -0.34653
 Alpha  occ. eigenvalues --   -0.34436  -0.33958  -0.33860  -0.33812  -0.33361
 Alpha  occ. eigenvalues --   -0.32895  -0.32717  -0.32273  -0.32149  -0.31615
 Alpha  occ. eigenvalues --   -0.31192  -0.31120  -0.29871  -0.29465  -0.29064
 Alpha  occ. eigenvalues --   -0.28980  -0.28785  -0.27876  -0.26609  -0.23585
 Alpha  occ. eigenvalues --   -0.23531  -0.23020  -0.21595  -0.08142
 Alpha virt. eigenvalues --   -0.04127  -0.00675   0.00498   0.00525   0.00617
 Alpha virt. eigenvalues --    0.05065   0.05515   0.05951   0.06456   0.07000
 Alpha virt. eigenvalues --    0.07838   0.07919   0.08175   0.08437   0.08795
 Alpha virt. eigenvalues --    0.09153   0.09566   0.10084   0.10457   0.10879
 Alpha virt. eigenvalues --    0.11019   0.11247   0.11449   0.11733   0.12153
 Alpha virt. eigenvalues --    0.12395   0.12937   0.13176   0.13461   0.13948
 Alpha virt. eigenvalues --    0.14117   0.14359   0.14654   0.15014   0.15342
 Alpha virt. eigenvalues --    0.15499   0.15891   0.16368   0.16544   0.16817
 Alpha virt. eigenvalues --    0.17275   0.17406   0.17555   0.17746   0.17963
 Alpha virt. eigenvalues --    0.18238   0.18361   0.18599   0.19152   0.20254
 Alpha virt. eigenvalues --    0.20457   0.20472   0.20846   0.20882   0.21485
 Alpha virt. eigenvalues --    0.21499   0.21594   0.22061   0.22378   0.22881
 Alpha virt. eigenvalues --    0.22997   0.23930   0.24171   0.24371   0.24847
 Alpha virt. eigenvalues --    0.25213   0.25294   0.25768   0.25793   0.26530
 Alpha virt. eigenvalues --    0.27974   0.28047   0.30000   0.30447   0.31217
 Alpha virt. eigenvalues --    0.31435   0.32277   0.33176   0.33350   0.34818
 Alpha virt. eigenvalues --    0.35391   0.37315   0.38122   0.39398   0.39662
 Alpha virt. eigenvalues --    0.40096   0.40988   0.41021   0.41394   0.42033
 Alpha virt. eigenvalues --    0.42954   0.43408   0.43740   0.43913   0.44018
 Alpha virt. eigenvalues --    0.44618   0.44930   0.45389   0.45865   0.47019
 Alpha virt. eigenvalues --    0.47528   0.47736   0.48819   0.49696   0.49975
 Alpha virt. eigenvalues --    0.50875   0.50934   0.51823   0.52854   0.53222
 Alpha virt. eigenvalues --    0.53718   0.53904   0.54239   0.54758   0.55263
 Alpha virt. eigenvalues --    0.55529   0.56804   0.57209   0.57930   0.58199
 Alpha virt. eigenvalues --    0.58378   0.58914   0.59555   0.59614   0.60064
 Alpha virt. eigenvalues --    0.60235   0.60530   0.61171   0.61408   0.61540
 Alpha virt. eigenvalues --    0.62147   0.62851   0.63126   0.63874   0.64042
 Alpha virt. eigenvalues --    0.64209   0.64245   0.64371   0.64843   0.64907
 Alpha virt. eigenvalues --    0.65427   0.65756   0.65901   0.65987   0.66244
 Alpha virt. eigenvalues --    0.66523   0.66952   0.67174   0.67384   0.67414
 Alpha virt. eigenvalues --    0.67934   0.68018   0.68388   0.68403   0.69039
 Alpha virt. eigenvalues --    0.69236   0.69313   0.69638   0.70041   0.70068
 Alpha virt. eigenvalues --    0.70474   0.70663   0.70741   0.71040   0.71562
 Alpha virt. eigenvalues --    0.71723   0.72023   0.72262   0.72470   0.73021
 Alpha virt. eigenvalues --    0.73427   0.73668   0.73692   0.73818   0.74395
 Alpha virt. eigenvalues --    0.74464   0.74691   0.74744   0.75077   0.75285
 Alpha virt. eigenvalues --    0.75770   0.75968   0.76237   0.76863   0.77111
 Alpha virt. eigenvalues --    0.77371   0.78183   0.78274   0.78539   0.79111
 Alpha virt. eigenvalues --    0.79651   0.79907   0.80182   0.80370   0.80947
 Alpha virt. eigenvalues --    0.81542   0.81570   0.81954   0.82294   0.82780
 Alpha virt. eigenvalues --    0.83006   0.83588   0.84046   0.84604   0.84795
 Alpha virt. eigenvalues --    0.84859   0.86212   0.86766   0.87884   0.88101
 Alpha virt. eigenvalues --    0.88309   0.89745   0.89911   0.91381   0.91518
 Alpha virt. eigenvalues --    0.91986   0.92885   0.93543   0.94390   0.96250
 Alpha virt. eigenvalues --    0.96703   0.97052   0.98954   0.99137   1.01290
 Alpha virt. eigenvalues --    1.01994   1.02413   1.03479   1.03770   1.05244
 Alpha virt. eigenvalues --    1.05319   1.05903   1.06243   1.06670   1.07603
 Alpha virt. eigenvalues --    1.08697   1.09706   1.10694   1.11249   1.11355
 Alpha virt. eigenvalues --    1.12345   1.14494   1.15074   1.15110   1.16246
 Alpha virt. eigenvalues --    1.16828   1.18124   1.18319   1.18983   1.19707
 Alpha virt. eigenvalues --    1.20426   1.20479   1.21231   1.21969   1.23204
 Alpha virt. eigenvalues --    1.23812   1.24444   1.24886   1.24990   1.26076
 Alpha virt. eigenvalues --    1.27188   1.27468   1.28420   1.28766   1.29003
 Alpha virt. eigenvalues --    1.29292   1.30185   1.30847   1.31096   1.32042
 Alpha virt. eigenvalues --    1.33519   1.35213   1.35527   1.35588   1.39103
 Alpha virt. eigenvalues --    1.41716   1.43892   1.43904   1.44763   1.45909
 Alpha virt. eigenvalues --    1.49267   1.49938   1.50756   1.51129   1.51503
 Alpha virt. eigenvalues --    1.52265   1.52496   1.52563   1.53126   1.54121
 Alpha virt. eigenvalues --    1.54593   1.54993   1.55364   1.55684   1.56054
 Alpha virt. eigenvalues --    1.56129   1.56297   1.57045   1.57590   1.57662
 Alpha virt. eigenvalues --    1.57795   1.58125   1.58435   1.58884   1.59587
 Alpha virt. eigenvalues --    1.59685   1.60358   1.60446   1.61058   1.61540
 Alpha virt. eigenvalues --    1.62212   1.63134   1.63855   1.64472   1.64620
 Alpha virt. eigenvalues --    1.65658   1.66809   1.68314   1.68715   1.69120
 Alpha virt. eigenvalues --    1.69539   1.70446   1.71220   1.71873   1.72241
 Alpha virt. eigenvalues --    1.74524   1.74926   1.75058   1.75692   1.76350
 Alpha virt. eigenvalues --    1.76750   1.77313   1.77414   1.77626   1.77903
 Alpha virt. eigenvalues --    1.78645   1.78679   1.79377   1.79801   1.79886
 Alpha virt. eigenvalues --    1.80876   1.81391   1.81621   1.81970   1.82436
 Alpha virt. eigenvalues --    1.82698   1.83151   1.83416   1.83453   1.83865
 Alpha virt. eigenvalues --    1.84104   1.84350   1.84715   1.84840   1.85405
 Alpha virt. eigenvalues --    1.85699   1.85989   1.86689   1.86846   1.87721
 Alpha virt. eigenvalues --    1.87963   1.88946   1.89446   1.89578   1.90214
 Alpha virt. eigenvalues --    1.90237   1.91199   1.91243   1.91576   1.92564
 Alpha virt. eigenvalues --    1.93035   1.93201   1.93725   1.93931   1.93999
 Alpha virt. eigenvalues --    1.94442   1.94501   1.95284   1.95449   1.95504
 Alpha virt. eigenvalues --    1.95580   1.95931   1.97071   1.97635   1.98224
 Alpha virt. eigenvalues --    1.98413   1.98553   1.98801   1.99918   2.00314
 Alpha virt. eigenvalues --    2.00664   2.01394   2.01588   2.01812   2.02366
 Alpha virt. eigenvalues --    2.02928   2.03081   2.03242   2.03597   2.04988
 Alpha virt. eigenvalues --    2.05216   2.05713   2.08642   2.09577   2.10493
 Alpha virt. eigenvalues --    2.13111   2.14666   2.16206   2.16690   2.16977
 Alpha virt. eigenvalues --    2.17340   2.17872   2.17972   2.18166   2.18366
 Alpha virt. eigenvalues --    2.18947   2.19140   2.19455   2.20218   2.20597
 Alpha virt. eigenvalues --    2.21412   2.21464   2.21781   2.23405   2.23458
 Alpha virt. eigenvalues --    2.24012   2.24849   2.25097   2.25302   2.26625
 Alpha virt. eigenvalues --    2.26681   2.29714   2.29793   2.30850   2.31391
 Alpha virt. eigenvalues --    2.32116   2.37044   2.38595   2.38689   2.39256
 Alpha virt. eigenvalues --    2.39368   2.40774   2.40847   2.41128   2.41684
 Alpha virt. eigenvalues --    2.42028   2.42099   2.43129   2.43236   2.43679
 Alpha virt. eigenvalues --    2.45465   2.45515   2.47164   2.47445   2.48372
 Alpha virt. eigenvalues --    2.49029   2.49074   2.52468   2.52656   2.55379
 Alpha virt. eigenvalues --    2.55585   2.56034   2.56093   2.56373   2.56576
 Alpha virt. eigenvalues --    2.56844   2.57067   2.57885   2.58015   2.62174
 Alpha virt. eigenvalues --    2.62219   2.62616   2.62744   2.62779   2.63030
 Alpha virt. eigenvalues --    2.63481   2.63712   2.63908   2.64010   2.64348
 Alpha virt. eigenvalues --    2.64453   2.65234   2.65276   2.66114   2.68566
 Alpha virt. eigenvalues --    2.69706   2.70999   2.72763   2.73255   2.73591
 Alpha virt. eigenvalues --    2.74199   2.74225   2.76940   2.78381   2.80423
 Alpha virt. eigenvalues --    2.84912   2.85394   2.86580   2.87312   2.87355
 Alpha virt. eigenvalues --    2.87537   2.88576   2.89211   2.89241   2.89903
 Alpha virt. eigenvalues --    2.89908   2.90446   2.90855   2.91626   2.92955
 Alpha virt. eigenvalues --    2.93640   2.93981   2.94373   2.94924   2.95326
 Alpha virt. eigenvalues --    2.95532   2.96014   2.96733   2.96749   2.96986
 Alpha virt. eigenvalues --    2.97022   2.98409   2.98759   2.99097   3.00735
 Alpha virt. eigenvalues --    3.01181   3.01768   3.02273   3.03133   3.04940
 Alpha virt. eigenvalues --    3.06441   3.06633   3.07307   3.07651   3.08373
 Alpha virt. eigenvalues --    3.08451   3.09367   3.09910   3.10778   3.11815
 Alpha virt. eigenvalues --    3.12326   3.12550   3.18234   3.18386   3.35887
 Alpha virt. eigenvalues --    3.58926   3.71696   3.81278   3.82105  45.33320
  Beta  occ. eigenvalues --  -77.08041 -77.07975 -19.19520 -19.09767 -19.09754
  Beta  occ. eigenvalues --  -14.30209 -10.28138 -10.20754 -10.20731 -10.20533
  Beta  occ. eigenvalues --  -10.20527 -10.19758 -10.19751 -10.18504 -10.18486
  Beta  occ. eigenvalues --  -10.17487 -10.17480 -10.17344 -10.17344 -10.17336
  Beta  occ. eigenvalues --  -10.17326 -10.17158 -10.17145 -10.16942 -10.16911
  Beta  occ. eigenvalues --  -10.16563 -10.16542 -10.16289 -10.16286 -10.14430
  Beta  occ. eigenvalues --   -6.57248  -6.57185  -4.73826  -4.73802  -4.73765
  Beta  occ. eigenvalues --   -4.73741  -4.73600  -4.73534  -3.03672  -1.87903
  Beta  occ. eigenvalues --   -1.86864  -1.86684  -1.09777  -0.91344  -0.90240
  Beta  occ. eigenvalues --   -0.89525  -0.81849  -0.81621  -0.79460  -0.79453
  Beta  occ. eigenvalues --   -0.77147  -0.75032  -0.72134  -0.68217  -0.67864
  Beta  occ. eigenvalues --   -0.67665  -0.67384  -0.67268  -0.66887  -0.66867
  Beta  occ. eigenvalues --   -0.66535  -0.66514  -0.62431  -0.60947  -0.56949
  Beta  occ. eigenvalues --   -0.56904  -0.55086  -0.54117  -0.54102  -0.50661
  Beta  occ. eigenvalues --   -0.50409  -0.48403  -0.47188  -0.46309  -0.46089
  Beta  occ. eigenvalues --   -0.45583  -0.45167  -0.45056  -0.44665  -0.44227
  Beta  occ. eigenvalues --   -0.43960  -0.43866  -0.43536  -0.43458  -0.43137
  Beta  occ. eigenvalues --   -0.42975  -0.42642  -0.42263  -0.42159  -0.41741
  Beta  occ. eigenvalues --   -0.41590  -0.40341  -0.40169  -0.39736  -0.38926
  Beta  occ. eigenvalues --   -0.38442  -0.38035  -0.37868  -0.37784  -0.37183
  Beta  occ. eigenvalues --   -0.37150  -0.37059  -0.36880  -0.35976  -0.35924
  Beta  occ. eigenvalues --   -0.35769  -0.35570  -0.34851  -0.34762  -0.34472
  Beta  occ. eigenvalues --   -0.33937  -0.33749  -0.33729  -0.33183  -0.32842
  Beta  occ. eigenvalues --   -0.32708  -0.32233  -0.32201  -0.31895  -0.30780
  Beta  occ. eigenvalues --   -0.30676  -0.29819  -0.29405  -0.28788  -0.28504
  Beta  occ. eigenvalues --   -0.28408  -0.27633  -0.25973  -0.24726  -0.22357
  Beta  occ. eigenvalues --   -0.22082  -0.21783
  Beta virt. eigenvalues --   -0.09932  -0.03398  -0.01405   0.00502   0.01092
  Beta virt. eigenvalues --    0.01296   0.01337   0.05160   0.05615   0.06196
  Beta virt. eigenvalues --    0.06503   0.07105   0.07970   0.08092   0.08323
  Beta virt. eigenvalues --    0.08544   0.08956   0.09264   0.09780   0.10313
  Beta virt. eigenvalues --    0.10524   0.10943   0.11156   0.11340   0.11500
  Beta virt. eigenvalues --    0.11786   0.12215   0.12684   0.12998   0.13208
  Beta virt. eigenvalues --    0.13545   0.13969   0.14204   0.14401   0.14678
  Beta virt. eigenvalues --    0.15102   0.15434   0.15988   0.16413   0.16583
  Beta virt. eigenvalues --    0.16651   0.16878   0.17319   0.17434   0.17686
  Beta virt. eigenvalues --    0.18023   0.18138   0.18289   0.18440   0.18634
  Beta virt. eigenvalues --    0.19249   0.20316   0.20562   0.20572   0.20882
  Beta virt. eigenvalues --    0.20927   0.21520   0.21547   0.21622   0.22115
  Beta virt. eigenvalues --    0.22495   0.22940   0.23027   0.23984   0.24219
  Beta virt. eigenvalues --    0.24596   0.24924   0.25294   0.25345   0.25879
  Beta virt. eigenvalues --    0.25983   0.26741   0.28077   0.28141   0.30201
  Beta virt. eigenvalues --    0.30853   0.31376   0.31692   0.32660   0.33369
  Beta virt. eigenvalues --    0.33521   0.35057   0.35570   0.37395   0.38226
  Beta virt. eigenvalues --    0.39568   0.39699   0.40208   0.41036   0.41211
  Beta virt. eigenvalues --    0.41470   0.42134   0.43186   0.43501   0.43984
  Beta virt. eigenvalues --    0.44017   0.44156   0.44760   0.45142   0.45586
  Beta virt. eigenvalues --    0.46085   0.47443   0.47684   0.47948   0.48920
  Beta virt. eigenvalues --    0.49868   0.50152   0.51242   0.51567   0.52024
  Beta virt. eigenvalues --    0.53057   0.53262   0.53993   0.54438   0.54498
  Beta virt. eigenvalues --    0.54873   0.55427   0.55692   0.57002   0.57415
  Beta virt. eigenvalues --    0.58132   0.58282   0.58949   0.59003   0.59634
  Beta virt. eigenvalues --    0.59713   0.60168   0.60351   0.60595   0.61243
  Beta virt. eigenvalues --    0.61584   0.61803   0.62185   0.62922   0.63184
  Beta virt. eigenvalues --    0.63962   0.64170   0.64274   0.64399   0.64800
  Beta virt. eigenvalues --    0.64945   0.65060   0.65471   0.65805   0.65929
  Beta virt. eigenvalues --    0.66053   0.66415   0.66667   0.67010   0.67247
  Beta virt. eigenvalues --    0.67505   0.67578   0.68001   0.68048   0.68455
  Beta virt. eigenvalues --    0.68458   0.69086   0.69335   0.69367   0.69706
  Beta virt. eigenvalues --    0.70124   0.70176   0.70503   0.70744   0.70769
  Beta virt. eigenvalues --    0.71136   0.71593   0.71877   0.72328   0.72392
  Beta virt. eigenvalues --    0.72552   0.73072   0.73513   0.73734   0.73752
  Beta virt. eigenvalues --    0.73920   0.74508   0.74543   0.74754   0.74835
  Beta virt. eigenvalues --    0.75219   0.75387   0.75810   0.76068   0.76322
  Beta virt. eigenvalues --    0.76955   0.77205   0.77437   0.78279   0.78354
  Beta virt. eigenvalues --    0.78636   0.79304   0.79724   0.79994   0.80368
  Beta virt. eigenvalues --    0.80433   0.81013   0.81569   0.81648   0.82268
  Beta virt. eigenvalues --    0.82483   0.82827   0.83028   0.83727   0.84086
  Beta virt. eigenvalues --    0.84705   0.84860   0.85018   0.86279   0.86836
  Beta virt. eigenvalues --    0.87964   0.88237   0.88382   0.89870   0.90120
  Beta virt. eigenvalues --    0.91467   0.91648   0.92105   0.92994   0.93647
  Beta virt. eigenvalues --    0.94513   0.96587   0.96899   0.97215   0.99227
  Beta virt. eigenvalues --    0.99335   1.01465   1.02149   1.02553   1.03637
  Beta virt. eigenvalues --    1.03928   1.05351   1.05439   1.06079   1.06340
  Beta virt. eigenvalues --    1.06860   1.07742   1.08773   1.09827   1.10767
  Beta virt. eigenvalues --    1.11398   1.11809   1.12481   1.14656   1.15145
  Beta virt. eigenvalues --    1.15213   1.16395   1.17072   1.18430   1.18475
  Beta virt. eigenvalues --    1.19083   1.19775   1.20541   1.20613   1.21458
  Beta virt. eigenvalues --    1.22099   1.23241   1.23983   1.24593   1.25109
  Beta virt. eigenvalues --    1.25174   1.26867   1.27777   1.27822   1.28626
  Beta virt. eigenvalues --    1.29062   1.29266   1.29735   1.30641   1.30892
  Beta virt. eigenvalues --    1.31347   1.32337   1.33617   1.35338   1.35884
  Beta virt. eigenvalues --    1.35912   1.39326   1.41912   1.44087   1.44164
  Beta virt. eigenvalues --    1.45140   1.46235   1.49369   1.50009   1.51010
  Beta virt. eigenvalues --    1.51196   1.51557   1.52347   1.52624   1.52709
  Beta virt. eigenvalues --    1.53171   1.54157   1.54751   1.55012   1.55399
  Beta virt. eigenvalues --    1.55853   1.56084   1.56235   1.56330   1.57190
  Beta virt. eigenvalues --    1.57687   1.57709   1.57859   1.58253   1.58548
  Beta virt. eigenvalues --    1.58955   1.59760   1.59820   1.60508   1.60615
  Beta virt. eigenvalues --    1.61211   1.61592   1.62393   1.63386   1.64088
  Beta virt. eigenvalues --    1.64675   1.64699   1.66291   1.66880   1.68371
  Beta virt. eigenvalues --    1.68923   1.69413   1.69710   1.70633   1.71981
  Beta virt. eigenvalues --    1.72042   1.72421   1.74673   1.75242   1.75348
  Beta virt. eigenvalues --    1.75857   1.76666   1.77041   1.77375   1.77470
  Beta virt. eigenvalues --    1.77671   1.77963   1.78762   1.78855   1.79469
  Beta virt. eigenvalues --    1.79993   1.80030   1.80928   1.81474   1.82179
  Beta virt. eigenvalues --    1.82206   1.82551   1.82857   1.83207   1.83492
  Beta virt. eigenvalues --    1.83566   1.84147   1.84216   1.84469   1.84807
  Beta virt. eigenvalues --    1.85038   1.85740   1.86033   1.86818   1.86906
  Beta virt. eigenvalues --    1.87781   1.88082   1.88658   1.89094   1.89696
  Beta virt. eigenvalues --    1.90036   1.90505   1.90664   1.91257   1.91283
  Beta virt. eigenvalues --    1.92044   1.92578   1.93121   1.93578   1.93817
  Beta virt. eigenvalues --    1.93970   1.94097   1.94484   1.94714   1.95346
  Beta virt. eigenvalues --    1.95591   1.95792   1.95852   1.96870   1.97239
  Beta virt. eigenvalues --    1.97811   1.98597   1.98668   1.98811   1.99471
  Beta virt. eigenvalues --    2.00018   2.00463   2.00748   2.01528   2.01902
  Beta virt. eigenvalues --    2.01999   2.02864   2.03101   2.03231   2.03908
  Beta virt. eigenvalues --    2.04245   2.05031   2.05514   2.06550   2.09252
  Beta virt. eigenvalues --    2.09761   2.10629   2.13703   2.15250   2.16435
  Beta virt. eigenvalues --    2.16734   2.17049   2.17406   2.17903   2.18049
  Beta virt. eigenvalues --    2.18247   2.18413   2.19213   2.19267   2.19569
  Beta virt. eigenvalues --    2.20268   2.20651   2.21452   2.21491   2.21867
  Beta virt. eigenvalues --    2.23465   2.23506   2.24085   2.24986   2.25237
  Beta virt. eigenvalues --    2.25482   2.26924   2.27055   2.29928   2.30093
  Beta virt. eigenvalues --    2.31366   2.31707   2.32411   2.37346   2.38653
  Beta virt. eigenvalues --    2.38742   2.39283   2.39822   2.40865   2.40909
  Beta virt. eigenvalues --    2.41326   2.41950   2.42418   2.42626   2.43288
  Beta virt. eigenvalues --    2.43300   2.43724   2.45568   2.46337   2.47216
  Beta virt. eigenvalues --    2.47590   2.48506   2.49132   2.49239   2.52818
  Beta virt. eigenvalues --    2.52877   2.55413   2.55596   2.56057   2.56156
  Beta virt. eigenvalues --    2.56380   2.56614   2.56919   2.57087   2.58183
  Beta virt. eigenvalues --    2.58355   2.62206   2.62234   2.62665   2.62755
  Beta virt. eigenvalues --    2.62792   2.63088   2.63561   2.63733   2.64018
  Beta virt. eigenvalues --    2.64037   2.64413   2.64495   2.65281   2.65791
  Beta virt. eigenvalues --    2.66557   2.68875   2.70128   2.71859   2.72829
  Beta virt. eigenvalues --    2.73450   2.73839   2.74319   2.74471   2.78304
  Beta virt. eigenvalues --    2.79141   2.81501   2.85456   2.85481   2.86707
  Beta virt. eigenvalues --    2.87330   2.87539   2.87579   2.88793   2.89246
  Beta virt. eigenvalues --    2.89406   2.89924   2.90354   2.90773   2.90882
  Beta virt. eigenvalues --    2.91804   2.92993   2.93681   2.94184   2.94453
  Beta virt. eigenvalues --    2.95153   2.95353   2.95992   2.96050   2.96791
  Beta virt. eigenvalues --    2.96807   2.97072   2.97264   2.98537   2.98954
  Beta virt. eigenvalues --    2.99225   3.00910   3.01866   3.02169   3.02901
  Beta virt. eigenvalues --    3.03469   3.04976   3.06514   3.06653   3.07458
  Beta virt. eigenvalues --    3.07901   3.08383   3.08628   3.09412   3.10019
  Beta virt. eigenvalues --    3.11126   3.11851   3.12592   3.12873   3.18266
  Beta virt. eigenvalues --    3.18467   3.36175   3.59171   3.71738   3.81751
  Beta virt. eigenvalues --    3.82555  45.27604
          Condensed to atoms (all electrons):
          Atomic-Atomic Spin Densities.
 Mulliken charges and spin densities:
               1          2
     1  O   -0.422631   0.164179
     2  P    0.322176  -0.006358
     3  O   -0.116986   0.002140
     4  N   -0.291560   0.256934
     5  C    0.009441  -0.016436
     6  H    0.048966   0.000101
     7  H    0.075743   0.011165
     8  O   -0.424804   0.161121
     9  P    0.319255  -0.005680
    10  C    0.004077   0.180947
    11  C   -0.063286  -0.084570
    12  H   -0.030786   0.001747
    13  C   -0.082724   0.497432
    14  H   -0.036755  -0.025734
    15  C   -0.062891  -0.084734
    16  H   -0.030758   0.001751
    17  C    0.003846   0.181156
    18  C    0.009194  -0.016517
    19  H    0.048621   0.000097
    20  H    0.075574   0.011196
    21  C   -0.391463  -0.001069
    22  C   -0.379405   0.002221
    23  C    0.075364   0.000175
    24  H    0.011749   0.000358
    25  H    0.025762   0.001003
    26  H    0.030360   0.000194
    27  C    0.067919   0.000169
    28  H    0.014971   0.000065
    29  H    0.030781   0.000006
    30  H    0.036645   0.000020
    31  Ru  -0.059964   0.752142
    32  C    0.081892   0.000225
    33  H    0.015784  -0.000103
    34  H    0.012203  -0.000012
    35  H    0.023177   0.000123
    36  C    0.081856   0.001269
    37  H    0.010216   0.000531
    38  H    0.008047  -0.000001
    39  H    0.016318   0.000429
    40  C    0.073281   0.001506
    41  H    0.007789   0.000141
    42  H    0.042836  -0.000643
    43  H    0.011435   0.002026
    44  C    0.079831   0.000194
    45  H    0.012545  -0.000060
    46  H    0.029501   0.000104
    47  H    0.031972   0.000022
    48  C   -0.391799  -0.001097
    49  C   -0.382306   0.001882
    50  C    0.067969   0.000179
    51  H    0.014849   0.000066
    52  H    0.030673  -0.000000
    53  H    0.036601   0.000021
    54  C    0.081994   0.000248
    55  H    0.015568  -0.000091
    56  H    0.012129  -0.000012
    57  H    0.023013   0.000121
    58  C    0.075767   0.000179
    59  H    0.011551   0.000340
    60  H    0.025596   0.001015
    61  H    0.030451   0.000221
    62  C    0.081504   0.001238
    63  H    0.010743   0.000534
    64  H    0.008567  -0.000000
    65  H    0.015453   0.000456
    66  C    0.073184   0.001514
    67  H    0.008171   0.000121
    68  H    0.042192  -0.000674
    69  H    0.011947   0.002026
    70  C    0.080137   0.000172
    71  H    0.012571  -0.000094
    72  H    0.029427   0.000098
    73  H    0.032067   0.000022
    74  C    0.143795   0.004107
    75  H    0.221360  -0.001758
    76  H    0.221709  -0.001808
 Sum of Mulliken charges =  -0.00000   2.00000
 Mulliken charges and spin densities with hydrogens summed into heavy atoms:
               1          2
     1  O   -0.200921   0.162372
     2  P    0.322176  -0.006358
     3  O   -0.116986   0.002140
     4  N   -0.291560   0.256934
     5  C    0.134150  -0.005169
     8  O   -0.203444   0.159363
     9  P    0.319255  -0.005680
    10  C    0.004077   0.180947
    11  C   -0.094072  -0.082824
    13  C   -0.119479   0.471698
    15  C   -0.093649  -0.082983
    17  C    0.003846   0.181156
    18  C    0.133389  -0.005224
    21  C   -0.391463  -0.001069
    22  C   -0.379405   0.002221
    23  C    0.143235   0.001730
    27  C    0.150317   0.000261
    31  Ru  -0.059964   0.752142
    32  C    0.133056   0.000234
    36  C    0.116437   0.002229
    40  C    0.135341   0.003031
    44  C    0.153849   0.000259
    48  C   -0.391799  -0.001097
    49  C   -0.382306   0.001882
    50  C    0.150093   0.000266
    54  C    0.132704   0.000265
    58  C    0.143364   0.001754
    62  C    0.116267   0.002227
    66  C    0.135494   0.002988
    70  C    0.154203   0.000199
    74  C    0.143795   0.004107
 Electronic spatial extent (au):  <R**2>=          13772.7448
 Charge=             -0.0000 electrons
 Dipole moment (field-independent basis, Debye):
    X=             -0.0627    Y=             -6.3331    Z=             -0.0127  Tot=              6.3334
 Quadrupole moment (field-independent basis, Debye-Ang):
   XX=           -173.1075   YY=           -244.3507   ZZ=           -224.3573
   XY=             -0.0897   XZ=             -5.3565   YZ=              0.0511
 Traceless Quadrupole moment (field-independent basis, Debye-Ang):
   XX=             40.8310   YY=            -30.4122   ZZ=            -10.4188
   XY=             -0.0897   XZ=             -5.3565   YZ=              0.0511
 Octapole moment (field-independent basis, Debye-Ang**2):
  XXX=             -0.4077  YYY=            -92.7131  ZZZ=             -0.0224  XYY=              0.0659
  XXY=            -29.9659  XXZ=              0.3303  XZZ=             -0.4312  YZZ=            -47.0251
  YYZ=              0.1140  XYZ=              3.7502
 Hexadecapole moment (field-independent basis, Debye-Ang**3):
 XXXX=         -10601.7814 YYYY=          -5041.4595 ZZZZ=          -3046.4127 XXXY=              0.1999
 XXXZ=            -27.8156 YYYX=             -1.6341 YYYZ=              0.6045 ZZZX=             -3.9579
 ZZZY=              0.3828 XXYY=          -2550.3902 XXZZ=          -2281.2127 YYZZ=          -1287.8222
 XXYZ=             -0.1313 YYXZ=            -61.1676 ZZXY=              0.4793
 N-N= 4.488462066567D+03 E-N=-1.363153592907D+04  KE= 1.921241183141D+03
 1\1\GINC-NODE042\SP\UB3LYP TD-FC\def2SVP\C24H45N1O3P2Ru1(3)\DO57CIG\29
 -Jan-2024\0\\# td=(triplets,nstates=5,conver=3) b3lyp scrf=(smd,solven
 t=water,iterative) def2svp empiricaldispersion=gd3bj int=ultrafine scf
 =xqc\\tBut_Ru_T_Crossing_region_Interpol_struc_2_5_T\\0,3\O,0,0.002471
 97,-0.44253635,-1.99698516\P,0,-2.48949413,-0.1618871,0.09919912\O,0,-
 0.02509978,-3.62683569,-0.00040338\N,0,0.00033614,1.53338867,-0.002205
 35\C,0,-2.28188172,1.46381892,0.96914066\H,0,-3.20035371,2.06563248,0.
 92509261\H,0,-2.12302016,1.18614964,2.02446516\O,0,-0.00792773,-0.4420
 899,1.99302957\P,0,2.491086,-0.16757652,-0.09687788\C,0,-1.09958971,2.
 2492328,0.45652283\C,0,-1.11422668,3.63109901,0.45534003\H,0,-2.008550
 92,4.14359707,0.81826468\C,0,0.00497024,4.36846421,-0.00376865\H,0,0.0
 0667779,5.45940573,-0.00455543\C,0,1.12186472,3.62694891,-0.46176887\H
 ,0,2.01787236,4.13617893,-0.82513812\C,0,1.102905,2.24509084,-0.461298
 74\C,0,2.28309365,1.45542358,-0.97221351\H,0,3.20238648,2.05625402,-0.
 93224055\H,0,2.12193708,1.17347291,-2.0260373\C,0,-3.59832715,-1.20122
 19,1.24711542\C,0,-3.38691355,0.24557416,-1.53053006\C,0,-2.73883527,-
 1.75271596,2.39652413\H,0,-3.39261578,-2.34099423,3.06141128\H,0,-2.27
 870048,-0.95586112,2.99461262\H,0,-1.94695662,-2.42017786,2.02934126\C
 ,0,-4.1573971,-2.40160071,0.46833018\H,0,-4.65035327,-3.08522312,1.178
 94388\H,0,-3.35572486,-2.96415951,-0.03508033\H,0,-4.90482022,-2.11039
 02,-0.28080715\Ru,0,-0.00456271,-0.61265518,-0.00212325\C,0,-4.7374054
 7,-0.3738325,1.8638503\H,0,-5.33246662,-1.03108873,2.52019254\H,0,-5.4
 1625647,0.04920661,1.11536479\H,0,-4.35072325,0.44624863,2.48629625\C,
 0,-3.28887809,-0.96406107,-2.47530944\H,0,-3.7217979,-0.68977883,-3.45
 189935\H,0,-3.83964547,-1.83594817,-2.10175388\H,0,-2.24240958,-1.2545
 4139,-2.6377633\C,0,-2.66404432,1.44191039,-2.17663279\H,0,-3.10038853
 ,1.60716459,-3.17583105\H,0,-1.59077758,1.25672841,-2.29753814\H,0,-2.
 8012688,2.36470455,-1.59724199\C,0,-4.85625006,0.63928285,-1.32832548\
 H,0,-5.26219961,0.97658583,-2.2970429\H,0,-4.96431467,1.47166442,-0.61
 707859\H,0,-5.4772406,-0.19896269,-0.98750944\C,0,3.59904098,-1.209559
 91,-1.24322624\C,0,3.38961899,0.24643143,1.53054283\C,0,4.16075784,-2.
 40692219,-0.46174663\H,0,4.65250903,-3.09268278,-1.17115002\H,0,3.3607
 789,-2.96833463,0.0456335\H,0,4.90979709,-2.11242096,0.28452599\C,0,4.
 73644059,-0.38393335,-1.86535328\H,0,5.33057311,-1.04324991,-2.5204834
 6\H,0,5.41654934,0.04207576,-1.11964288\H,0,4.34824175,0.43375918,-2.4
 8997987\C,0,2.73658279,-1.7651452,-2.38848048\H,0,3.38828264,-2.355944
 75,-3.05319451\H,0,2.27481166,-0.97030513,-2.98805609\H,0,1.94537061,-
 2.43092588,-2.01666751\C,0,3.29573928,-0.96082489,2.47877405\H,0,3.728
 49615,-0.68251592,3.45430503\H,0,3.84875596,-1.83222258,2.10743073\H,0
 ,2.25019069,-1.25388777,2.64282704\C,0,2.66374265,1.44223772,2.1742684
 1\H,0,3.0997717,1.61096948,3.1730304\H,0,1.59092274,1.25430289,2.29571
 393\H,0,2.79819831,2.36411212,1.59280257\C,0,4.85767254,0.643313,1.325
 56745\H,0,5.26416576,0.98441366,2.29274701\H,0,4.96284434,1.47385022,0
 .61172439\H,0,5.48017135,-0.19447038,0.98629637\C,0,-0.0151884,-2.4637
 1357,-0.0014483\H,0,-0.05890506,-1.31313936,2.40936105\H,0,0.03988379,
 -1.31435573,-2.41319874\\Version=ES64L-G16RevB.01\State=3-A\HF=-1998.9
 267415\S2=2.017312\S2-1=0.\S2A=2.00018\RMSD=2.520e-09\PG=C01 [X(C24H45
 N1O3P2Ru1)]\\@


 THERE IS NO CURE FOR BIRTH AND DEATH SAVE TO ENJOY THE INTERVAL.

                               -- GEORGE SANTAYANA
 Job cpu time:       0 days 11 hours  5 minutes 25.5 seconds.
 Elapsed time:       0 days  0 hours 27 minutes 47.1 seconds.
 File lengths (MBytes):  RWF=   2834 Int=      0 D2E=      0 Chk=    130 Scr=      1
 Normal termination of Gaussian 16 at Mon Jan 29 16:52:38 2024.
