 Entering Gaussian System, Link 0=g16
 Input=A_Ru_PC_F_Prak_T_TDDFT.gjf
 Output=A_Ru_PC_F_Prak_T_TDDFT.log
 Initial command:
 /cluster/apps/gaussian/g16_c02/g16/l1.exe "/beegfs/do57cig/gauss2077691/Gau-826402.inp" -scrdir="/beegfs/do57cig/gauss2077691/"
 Default CPUs for threads: 0-23
 Default is to use a total of  24 processors:
                               24 via shared-memory
                                1 via Linda
 Entering Link 1 = /cluster/apps/gaussian/g16_c02/g16/l1.exe PID=    826403.
  
 Copyright (c) 1988-2021, Gaussian, Inc.  All Rights Reserved.
  
 This is part of the Gaussian(R) 16 program.  It is based on
 the Gaussian(R) 09 system (copyright 2009, Gaussian, Inc.),
 the Gaussian(R) 03 system (copyright 2003, Gaussian, Inc.),
 the Gaussian(R) 98 system (copyright 1998, Gaussian, Inc.),
 the Gaussian(R) 94 system (copyright 1995, Gaussian, Inc.),
 the Gaussian 92(TM) system (copyright 1992, Gaussian, Inc.),
 the Gaussian 90(TM) system (copyright 1990, Gaussian, Inc.),
 the Gaussian 88(TM) system (copyright 1988, Gaussian, Inc.),
 the Gaussian 86(TM) system (copyright 1986, Carnegie Mellon
 University), and the Gaussian 82(TM) system (copyright 1983,
 Carnegie Mellon University). Gaussian is a federally registered
 trademark of Gaussian, Inc.
  
 This software contains proprietary and confidential information,
 including trade secrets, belonging to Gaussian, Inc.
  
 This software is provided under written license and may be
 used, copied, transmitted, or stored only in accord with that
 written license.
  
 The following legend is applicable only to US Government
 contracts under FAR:
  
                    RESTRICTED RIGHTS LEGEND
  
 Use, reproduction and disclosure by the US Government is
 subject to restrictions as set forth in subparagraphs (a)
 and (c) of the Commercial Computer Software - Restricted
 Rights clause in FAR 52.227-19.
  
 Gaussian, Inc.
 340 Quinnipiac St., Bldg. 40, Wallingford CT 06492
  
  
 ---------------------------------------------------------------
 Warning -- This program may not be used in any manner that
 competes with the business of Gaussian, Inc. or will provide
 assistance to any competitor of Gaussian, Inc.  The licensee
 of this program is prohibited from giving any competitor of
 Gaussian, Inc. access to this program.  By using this program,
 the user acknowledges that Gaussian, Inc. is engaged in the
 business of creating and licensing software in the field of
 computational chemistry and represents and warrants to the
 licensee that it is not a competitor of Gaussian, Inc. and that
 it will not use this program in any manner prohibited above.
 ---------------------------------------------------------------
  

 Cite this work as:
 Gaussian 16, Revision C.02,
 M. J. Frisch, G. W. Trucks, H. B. Schlegel, G. E. Scuseria, 
 M. A. Robb, J. R. Cheeseman, G. Scalmani, V. Barone, 
 G. A. Petersson, H. Nakatsuji, X. Li, M. Caricato, A. V. Marenich, 
 J. Bloino, B. G. Janesko, R. Gomperts, B. Mennucci, H. P. Hratchian, 
 J. V. Ortiz, A. F. Izmaylov, J. L. Sonnenberg, D. Williams-Young, 
 F. Ding, F. Lipparini, F. Egidi, J. Goings, B. Peng, A. Petrone, 
 T. Henderson, D. Ranasinghe, V. G. Zakrzewski, J. Gao, N. Rega, 
 G. Zheng, W. Liang, M. Hada, M. Ehara, K. Toyota, R. Fukuda, 
 J. Hasegawa, M. Ishida, T. Nakajima, Y. Honda, O. Kitao, H. Nakai, 
 T. Vreven, K. Throssell, J. A. Montgomery, Jr., J. E. Peralta, 
 F. Ogliaro, M. J. Bearpark, J. J. Heyd, E. N. Brothers, K. N. Kudin, 
 V. N. Staroverov, T. A. Keith, R. Kobayashi, J. Normand, 
 K. Raghavachari, A. P. Rendell, J. C. Burant, S. S. Iyengar, 
 J. Tomasi, M. Cossi, J. M. Millam, M. Klene, C. Adamo, R. Cammi, 
 J. W. Ochterski, R. L. Martin, K. Morokuma, O. Farkas, 
 J. B. Foresman, and D. J. Fox, Gaussian, Inc., Wallingford CT, 2019.
 
 ******************************************
 Gaussian 16:  ES64L-G16RevC.02  7-Dec-2021
                 3-Jun-2024 
 ******************************************
 %chk=TDDFT_Ru_DFT_F_Prak_T.chk
 %Oldchk=Opt_Ru_DFT_F_Prak_T.chk
 SetSPE:  set environment variable "OMP_PROC_BIND" = "true"
 SetSPE:  set environment variable "OMP_PLACES" = "{0},{1},{2},{3},{4},{5},{6},{7},{8},{9},{10},{11},{12},{13},{14},{15},{16},{17},{18},{19},{20},{21},{22},{23}"
 Copying data from "Opt_Ru_DFT_F_Prak_T.chk" to current chk file "TDDFT_Ru_DFT_F_Prak_T.chk"
 IOpt=  2 FromEx=T IUOpen= 4 IOptOp= 5 NList=   0 IFRang= 0 IUIn= 4 IUOut= 2.
 ----------------------------------------------------------------------
 # td=(triplets,nstates=50,conver=3) b3lyp scrf=(smd,solvent=water) def
 2svp empiricaldispersion=gd3bj int=ultrafine guess=read geom=check scf
 =xqc
 ----------------------------------------------------------------------
 1/29=2,38=1,172=1/1;
 2/12=2,40=1/2;
 3/5=43,7=101,11=9,14=-4,25=1,30=1,70=32201,72=1,74=-5,75=-5,116=-2,124=41/1,2,3,8;
 4/5=1/1;
 5/5=2,8=3,13=1,38=6,53=1/2,8;
 8/6=1,10=1,108=50/1;
 9/9=3,41=50,42=1,48=3,70=2/14;
 6/7=2,8=2,9=2,10=2/1;
 99/5=1,9=1/99;
 ------------------
 Opt_Ru_DFT_T_TDDFT
 ------------------
 Structure from the checkpoint file:  "TDDFT_Ru_DFT_F_Prak_T.chk"
 Charge =  0 Multiplicity = 3
 Redundant internal coordinates found in file.  (old form).
 O,0,4.5443276641,5.3554772509,10.5858725904
 P,0,6.678186868,5.6137370134,7.9089964857
 O,0,6.8775044172,8.1077351569,11.6464171146
 N,0,6.3465506681,3.1716781351,9.8998738066
 C,0,7.4291405904,3.911866822,7.7908914023
 H,0,7.4678079823,3.555114594,6.7527370837
 H,0,8.4699016983,4.0410444849,8.1274776668
 O,0,8.5625063296,4.8972191704,10.6596340933
 P,0,6.3733740924,3.736820352,13.0309384399
 C,0,6.779892261,2.8600980581,8.6550358882
 C,0,6.6514453248,1.5601976234,8.1533068347
 H,0,7.009193281,1.3392719718,7.1470446509
 C,0,6.0619318878,0.5753055281,8.9396562266
 H,0,5.9493188184,-0.4434848276,8.5625072671
 C,0,5.6192867779,0.9108795575,10.2152942079
 H,0,5.1570582161,0.1671506907,10.8653271053
 C,0,5.7781733401,2.2213538888,10.6799345638
 C,0,5.2890591267,2.56590181,12.0641753658
 H,0,5.0963658495,1.6384473845,12.6202254484
 H,0,4.3263652451,3.0923749774,11.9691652823
 C,0,8.0130150371,6.7029970615,7.0932470129
 C,0,5.1181852462,5.5030077088,6.8160579108
 C,0,9.0758893768,6.9658794766,8.1756235264
 H,0,9.8648053753,7.6093732798,7.7510507052
 H,0,9.5499101538,6.0403629245,8.529604876
 H,0,8.6458368917,7.4826098042,9.046569958
 C,0,7.3937735475,8.0546105537,6.7076966
 H,0,8.1997041365,8.7460409724,6.409689003
 H,0,6.8597085421,8.5106342867,7.5561234374
 H,0,6.6977298878,7.9745685703,5.861983495
 Ru,0,6.5705724362,5.2915115096,10.6762061747
 C,0,8.6944748138,6.0610075226,5.8772442
 H,0,9.4458313507,6.7620314067,5.4740267729
 H,0,7.9886878463,5.8297960555,5.0699547977
 H,0,9.2245818981,5.1364747267,6.1486169459
 C,0,4.2523372583,6.7335726055,7.1382556776
 H,0,3.2995381226,6.6669235032,6.586025234
 H,0,4.736655411,7.677317611,6.8550284505
 H,0,4.0200370752,6.7729212325,8.2135327817
 C,0,4.3374537226,4.2485638056,7.2479245982
 H,0,3.3480942385,4.2671035481,6.7604514298
 H,0,4.175139602,4.2144902262,8.3336074704
 H,0,4.8379609306,3.3216281024,6.937092431
 C,0,5.3918156951,5.4082202549,5.3115803109
 H,0,4.4359855922,5.2576986344,4.7798024087
 H,0,6.0420997872,4.5537237431,5.0697968128
 H,0,5.8513615405,6.3207241934,4.9089826116
 C,0,5.2196716536,4.260592133,14.4550409571
 C,0,7.7916114751,2.6289276515,13.6640923875
 C,0,6.0598082931,4.8667597898,15.5888304503
 H,0,5.3849442752,5.3379976133,16.3230035089
 H,0,6.7418789245,5.6462387583,15.2143632226
 H,0,6.6539025781,4.112681525,16.1224997329
 C,0,4.3279749798,3.135248729,14.99667637
 H,0,3.7013839667,3.5333769921,15.813693229
 H,0,4.9069141122,2.2955368134,15.4008929321
 H,0,3.6478164813,2.746645244,14.2248417198
 C,0,4.3235285429,5.3757138608,13.8856366504
 H,0,3.6452852745,5.7305614204,14.679939924
 H,0,3.7065417829,5.0277797512,13.0458560689
 H,0,4.9192993748,6.232470649,13.5362255121
 C,0,8.9019323644,3.5636369257,14.1752628559
 H,0,9.7786938163,2.9637118359,14.4730688519
 H,0,8.590610917,4.1541594551,15.0468648989
 H,0,9.2192710548,4.2583487458,13.3822657529
 C,0,8.3469318722,1.8551038644,12.4547513215
 H,0,9.2826859512,1.3555254572,12.7575405966
 H,0,8.5792475191,2.5184066612,11.6102638819
 H,0,7.6561309688,1.0742477794,12.1094829296
 C,0,7.3882037427,1.6204648166,14.7443798642
 H,0,8.2515523928,0.9718731357,14.9749472745
 H,0,6.5672751288,0.9695943988,14.4067016656
 H,0,7.0837661006,2.1073878325,15.6805401213
 C,0,6.7559301122,7.0064753751,11.276152793
 H,0,9.0702770064,5.6829065101,10.9036344596
 H,0,4.2132897035,6.2083739734,10.8987362095
 Recover connectivity data from disk.
                           ----------------------------
                           !    Current Parameters    !
                           ! (Angstroms and Degrees)  !
 --------------------------                            --------------------------
 ! Name  Definition              Value                                          !
 --------------------------------------------------------------------------------
 ! R1    R(1,31)                 2.0293                                         !
 ! R2    R(1,76)                 0.9669                                         !
 ! R3    R(2,5)                  1.8639                                         !
 ! R4    R(2,21)                 1.9062                                         !
 ! R5    R(2,22)                 1.908                                          !
 ! R6    R(2,31)                 2.788                                          !
 ! R7    R(3,74)                 1.1682                                         !
 ! R8    R(4,10)                 1.3544                                         !
 ! R9    R(4,17)                 1.3545                                         !
 ! R10   R(4,31)                 2.2686                                         !
 ! R11   R(5,6)                  1.0984                                         !
 ! R12   R(5,7)                  1.1014                                         !
 ! R13   R(5,10)                 1.5081                                         !
 ! R14   R(8,31)                 2.0307                                         !
 ! R15   R(8,75)                 0.9668                                         !
 ! R16   R(9,18)                 1.8659                                         !
 ! R17   R(9,31)                 2.8286                                         !
 ! R18   R(9,48)                 1.9062                                         !
 ! R19   R(9,49)                 1.9078                                         !
 ! R20   R(10,11)                1.3993                                         !
 ! R21   R(11,12)                1.0906                                         !
 ! R22   R(11,13)                1.3914                                         !
 ! R23   R(13,14)                1.0922                                         !
 ! R24   R(13,15)                1.3913                                         !
 ! R25   R(15,16)                1.0906                                         !
 ! R26   R(15,17)                1.3995                                         !
 ! R27   R(17,18)                1.508                                          !
 ! R28   R(18,19)                1.0984                                         !
 ! R29   R(18,20)                1.1014                                         !
 ! R30   R(21,23)                1.5396                                         !
 ! R31   R(21,27)                1.5359                                         !
 ! R32   R(21,32)                1.5347                                         !
 ! R33   R(22,36)                1.5388                                         !
 ! R34   R(22,40)                1.5394                                         !
 ! R35   R(22,44)                1.5321                                         !
 ! R36   R(23,24)                1.1031                                         !
 ! R37   R(23,25)                1.0984                                         !
 ! R38   R(23,26)                1.1002                                         !
 ! R39   R(27,28)                1.1029                                         !
 ! R40   R(27,29)                1.1014                                         !
 ! R41   R(27,30)                1.0982                                         !
 ! R42   R(31,74)                1.8263                                         !
 ! R43   R(32,33)                1.1039                                         !
 ! R44   R(32,34)                1.097                                          !
 ! R45   R(32,35)                1.0997                                         !
 ! R46   R(36,37)                1.1033                                         !
 ! R47   R(36,38)                1.0979                                         !
 ! R48   R(36,39)                1.1008                                         !
 ! R49   R(40,41)                1.1031                                         !
 ! R50   R(40,42)                1.0983                                         !
 ! R51   R(40,43)                1.0983                                         !
 ! R52   R(44,45)                1.1041                                         !
 ! R53   R(44,46)                1.1007                                         !
 ! R54   R(44,47)                1.0981                                         !
 ! R55   R(48,50)                1.5358                                         !
 ! R56   R(48,54)                1.5346                                         !
 ! R57   R(48,58)                1.5397                                         !
 ! R58   R(49,62)                1.5388                                         !
 ! R59   R(49,66)                1.5394                                         !
 ! R60   R(49,70)                1.5319                                         !
 ! R61   R(50,51)                1.103                                          !
 ! R62   R(50,52)                1.1014                                         !
 ! R63   R(50,53)                1.0984                                         !
 ! R64   R(54,55)                1.1039                                         !
 ! R65   R(54,56)                1.0971                                         !
 ! R66   R(54,57)                1.0997                                         !
 ! R67   R(58,59)                1.1031                                         !
 ! R68   R(58,60)                1.0986                                         !
 ! R69   R(58,61)                1.1005                                         !
 ! R70   R(62,63)                1.1033                                         !
 ! R71   R(62,64)                1.0979                                         !
 ! R72   R(62,65)                1.101                                          !
 ! R73   R(66,67)                1.1031                                         !
 ! R74   R(66,68)                1.0987                                         !
 ! R75   R(66,69)                1.0982                                         !
 ! R76   R(70,71)                1.1042                                         !
 ! R77   R(70,72)                1.1007                                         !
 ! R78   R(70,73)                1.0983                                         !
 ! A1    A(31,1,76)            110.8094                                         !
 ! A2    A(5,2,21)             102.2691                                         !
 ! A3    A(5,2,22)             103.8938                                         !
 ! A4    A(5,2,31)              88.4479                                         !
 ! A5    A(21,2,22)            111.1348                                         !
 ! A6    A(21,2,31)            121.1863                                         !
 ! A7    A(22,2,31)            122.025                                          !
 ! A8    A(10,4,17)            120.1429                                         !
 ! A9    A(10,4,31)            119.8599                                         !
 ! A10   A(17,4,31)            119.997                                          !
 ! A11   A(2,5,6)              111.7536                                         !
 ! A12   A(2,5,7)              104.7289                                         !
 ! A13   A(2,5,10)             115.278                                          !
 ! A14   A(6,5,7)              107.0766                                         !
 ! A15   A(6,5,10)             109.2808                                         !
 ! A16   A(7,5,10)             108.2687                                         !
 ! A17   A(31,8,75)            110.8145                                         !
 ! A18   A(18,9,31)             87.3694                                         !
 ! A19   A(18,9,48)            101.9938                                         !
 ! A20   A(18,9,49)            103.8592                                         !
 ! A21   A(31,9,48)            120.872                                          !
 ! A22   A(31,9,49)            122.9319                                         !
 ! A23   A(48,9,49)            111.1959                                         !
 ! A24   A(4,10,5)             120.2601                                         !
 ! A25   A(4,10,11)            120.9231                                         !
 ! A26   A(5,10,11)            118.8116                                         !
 ! A27   A(10,11,12)           119.2697                                         !
 ! A28   A(10,11,13)           119.5931                                         !
 ! A29   A(12,11,13)           121.1354                                         !
 ! A30   A(11,13,14)           120.5854                                         !
 ! A31   A(11,13,15)           118.8318                                         !
 ! A32   A(14,13,15)           120.5828                                         !
 ! A33   A(13,15,16)           121.1212                                         !
 ! A34   A(13,15,17)           119.6131                                         !
 ! A35   A(16,15,17)           119.2636                                         !
 ! A36   A(4,17,15)            120.8925                                         !
 ! A37   A(4,17,18)            120.2942                                         !
 ! A38   A(15,17,18)           118.8092                                         !
 ! A39   A(9,18,17)            115.4996                                         !
 ! A40   A(9,18,19)            111.6868                                         !
 ! A41   A(9,18,20)            104.6364                                         !
 ! A42   A(17,18,19)           109.1879                                         !
 ! A43   A(17,18,20)           108.2729                                         !
 ! A44   A(19,18,20)           107.0948                                         !
 ! A45   A(2,21,23)            106.2685                                         !
 ! A46   A(2,21,27)            109.145                                          !
 ! A47   A(2,21,32)            114.2664                                         !
 ! A48   A(23,21,27)           107.7315                                         !
 ! A49   A(23,21,32)           108.7794                                         !
 ! A50   A(27,21,32)           110.381                                          !
 ! A51   A(2,22,36)            107.0804                                         !
 ! A52   A(2,22,40)            107.5336                                         !
 ! A53   A(2,22,44)            114.8387                                         !
 ! A54   A(36,22,40)           107.9124                                         !
 ! A55   A(36,22,44)           110.8293                                         !
 ! A56   A(40,22,44)           108.4003                                         !
 ! A57   A(21,23,24)           108.8301                                         !
 ! A58   A(21,23,25)           112.3712                                         !
 ! A59   A(21,23,26)           111.5226                                         !
 ! A60   A(24,23,25)           107.8744                                         !
 ! A61   A(24,23,26)           108.0752                                         !
 ! A62   A(25,23,26)           108.0169                                         !
 ! A63   A(21,27,28)           108.96                                           !
 ! A64   A(21,27,29)           111.5002                                         !
 ! A65   A(21,27,30)           112.6251                                         !
 ! A66   A(28,27,29)           107.6325                                         !
 ! A67   A(28,27,30)           107.5023                                         !
 ! A68   A(29,27,30)           108.4249                                         !
 ! A69   A(1,31,2)              89.468                                          !
 ! A70   A(1,31,4)              85.1596                                         !
 ! A71   A(1,31,9)              89.1274                                         !
 ! A72   A(1,31,74)             94.9546                                         !
 ! A73   A(2,31,4)              76.8296                                         !
 ! A74   A(2,31,8)              88.6522                                         !
 ! A75   A(2,31,9)             153.189                                          !
 ! A76   A(2,31,74)            102.3338                                         !
 ! A77   A(4,31,8)              84.988                                          !
 ! A78   A(4,31,9)              76.3731                                         !
 ! A79   A(8,31,9)              88.1924                                         !
 ! A80   A(8,31,74)             94.9022                                         !
 ! A81   A(9,31,74)            104.4618                                         !
 ! A82   A(21,32,33)           109.0265                                         !
 ! A83   A(21,32,34)           112.6808                                         !
 ! A84   A(21,32,35)           111.728                                          !
 ! A85   A(33,32,34)           107.6361                                         !
 ! A86   A(33,32,35)           107.2128                                         !
 ! A87   A(34,32,35)           108.3334                                         !
 ! A88   A(22,36,37)           109.4404                                         !
 ! A89   A(22,36,38)           112.6548                                         !
 ! A90   A(22,36,39)           110.6015                                         !
 ! A91   A(37,36,38)           107.6836                                         !
 ! A92   A(37,36,39)           107.9898                                         !
 ! A93   A(38,36,39)           108.3217                                         !
 ! A94   A(22,40,41)           108.4942                                         !
 ! A95   A(22,40,42)           112.183                                          !
 ! A96   A(22,40,43)           112.1618                                         !
 ! A97   A(41,40,42)           107.7472                                         !
 ! A98   A(41,40,43)           107.3276                                         !
 ! A99   A(42,40,43)           108.7187                                         !
 ! A100  A(22,44,45)           109.0731                                         !
 ! A101  A(22,44,46)           111.6697                                         !
 ! A102  A(22,44,47)           112.5405                                         !
 ! A103  A(45,44,46)           107.447                                          !
 ! A104  A(45,44,47)           107.3964                                         !
 ! A105  A(46,44,47)           108.5013                                         !
 ! A106  A(9,48,50)            109.202                                          !
 ! A107  A(9,48,54)            114.4493                                         !
 ! A108  A(9,48,58)            105.9608                                         !
 ! A109  A(50,48,54)           110.2878                                         !
 ! A110  A(50,48,58)           107.7903                                         !
 ! A111  A(54,48,58)           108.8707                                         !
 ! A112  A(9,49,62)            107.0916                                         !
 ! A113  A(9,49,66)            107.4196                                         !
 ! A114  A(9,49,70)            114.8701                                         !
 ! A115  A(62,49,66)           107.8199                                         !
 ! A116  A(62,49,70)           110.8324                                         !
 ! A117  A(66,49,70)           108.5466                                         !
 ! A118  A(48,50,51)           108.9848                                         !
 ! A119  A(48,50,52)           111.537                                          !
 ! A120  A(48,50,53)           112.557                                          !
 ! A121  A(51,50,52)           107.6296                                         !
 ! A122  A(51,50,53)           107.5094                                         !
 ! A123  A(52,50,53)           108.4286                                         !
 ! A124  A(48,54,55)           109.0608                                         !
 ! A125  A(48,54,56)           112.6244                                         !
 ! A126  A(48,54,57)           111.7651                                         !
 ! A127  A(55,54,56)           107.6302                                         !
 ! A128  A(55,54,57)           107.2073                                         !
 ! A129  A(56,54,57)           108.3304                                         !
 ! A130  A(48,58,59)           108.9374                                         !
 ! A131  A(48,58,60)           112.3444                                         !
 ! A132  A(48,58,61)           111.4792                                         !
 ! A133  A(59,58,60)           107.8778                                         !
 ! A134  A(59,58,61)           108.1224                                         !
 ! A135  A(60,58,61)           107.9324                                         !
 ! A136  A(49,62,63)           109.4371                                         !
 ! A137  A(49,62,64)           112.6963                                         !
 ! A138  A(49,62,65)           110.6097                                         !
 ! A139  A(63,62,64)           107.6692                                         !
 ! A140  A(63,62,65)           107.9667                                         !
 ! A141  A(64,62,65)           108.3096                                         !
 ! A142  A(49,66,67)           108.5437                                         !
 ! A143  A(49,66,68)           112.1256                                         !
 ! A144  A(49,66,69)           112.1777                                         !
 ! A145  A(67,66,68)           107.7595                                         !
 ! A146  A(67,66,69)           107.3293                                         !
 ! A147  A(68,66,69)           108.6997                                         !
 ! A148  A(49,70,71)           109.1498                                         !
 ! A149  A(49,70,72)           111.674                                          !
 ! A150  A(49,70,73)           112.4724                                         !
 ! A151  A(71,70,72)           107.4497                                         !
 ! A152  A(71,70,73)           107.4081                                         !
 ! A153  A(72,70,73)           108.4771                                         !
 ! A154  L(1,31,8,2,-1)        178.1202                                         !
 ! A155  L(4,31,74,1,-1)       180.1141                                         !
 ! A156  L(3,74,31,21,-1)      179.2973                                         !
 ! A157  L(1,31,8,2,-2)        189.6793                                         !
 ! A158  L(4,31,74,1,-2)       180.8386                                         !
 ! A159  L(3,74,31,21,-2)      180.1068                                         !
 ! D1    D(76,1,31,2)         -104.607                                          !
 ! D2    D(76,1,31,4)          178.5657                                         !
 ! D3    D(76,1,31,9)          102.1679                                         !
 ! D4    D(76,1,31,74)          -2.2729                                         !
 ! D5    D(21,2,5,6)           -69.2006                                         !
 ! D6    D(21,2,5,7)            46.3817                                         !
 ! D7    D(21,2,5,10)          165.2364                                         !
 ! D8    D(22,2,5,6)            46.5151                                         !
 ! D9    D(22,2,5,7)           162.0974                                         !
 ! D10   D(22,2,5,10)          -79.0479                                         !
 ! D11   D(31,2,5,6)           169.1832                                         !
 ! D12   D(31,2,5,7)           -75.2346                                         !
 ! D13   D(31,2,5,10)           43.6201                                         !
 ! D14   D(5,2,21,23)          -81.5884                                         !
 ! D15   D(5,2,21,27)          162.4898                                         !
 ! D16   D(5,2,21,32)           38.3728                                         !
 ! D17   D(22,2,21,23)         168.0757                                         !
 ! D18   D(22,2,21,27)          52.1538                                         !
 ! D19   D(22,2,21,32)         -71.9631                                         !
 ! D20   D(31,2,21,23)          14.1066                                         !
 ! D21   D(31,2,21,27)        -101.8152                                         !
 ! D22   D(31,2,21,32)         134.0678                                         !
 ! D23   D(5,2,22,36)          165.8114                                         !
 ! D24   D(5,2,22,40)           50.0573                                         !
 ! D25   D(5,2,22,44)          -70.6746                                         !
 ! D26   D(21,2,22,36)         -84.9007                                         !
 ! D27   D(21,2,22,40)         159.3453                                         !
 ! D28   D(21,2,22,44)          38.6133                                         !
 ! D29   D(31,2,22,36)          68.8149                                         !
 ! D30   D(31,2,22,40)         -46.9392                                         !
 ! D31   D(31,2,22,44)        -167.6711                                         !
 ! D32   D(5,2,31,1)          -115.3516                                         !
 ! D33   D(5,2,31,4)           -30.1983                                         !
 ! D34   D(5,2,31,8)            54.9692                                         !
 ! D35   D(5,2,31,9)           -28.3402                                         !
 ! D36   D(5,2,31,74)          149.6931                                         !
 ! D37   D(21,2,31,1)          141.2282                                         !
 ! D38   D(21,2,31,4)         -133.6185                                         !
 ! D39   D(21,2,31,8)          -48.451                                          !
 ! D40   D(21,2,31,9)         -131.7604                                         !
 ! D41   D(21,2,31,74)          46.2729                                         !
 ! D42   D(22,2,31,1)           -9.9025                                         !
 ! D43   D(22,2,31,4)           75.2508                                         !
 ! D44   D(22,2,31,8)          160.4183                                         !
 ! D45   D(22,2,31,9)           77.1089                                         !
 ! D46   D(22,2,31,74)        -104.8578                                         !
 ! D47   D(17,4,10,5)         -179.2147                                         !
 ! D48   D(17,4,10,11)          -0.0504                                         !
 ! D49   D(31,4,10,5)            0.907                                          !
 ! D50   D(31,4,10,11)        -179.9286                                         !
 ! D51   D(10,4,17,15)          -0.4807                                         !
 ! D52   D(10,4,17,18)        -179.7332                                         !
 ! D53   D(31,4,17,15)         179.3974                                         !
 ! D54   D(31,4,17,18)           0.1449                                         !
 ! D55   D(10,4,31,1)          112.2935                                         !
 ! D56   D(10,4,31,2)           21.7064                                         !
 ! D57   D(10,4,31,8)          -68.08                                           !
 ! D58   D(10,4,31,9)         -157.4314                                         !
 ! D59   D(17,4,31,1)          -67.585                                          !
 ! D60   D(17,4,31,2)         -158.1721                                         !
 ! D61   D(17,4,31,8)          112.0416                                         !
 ! D62   D(17,4,31,9)           22.6902                                         !
 ! D63   D(2,5,10,4)           -38.3686                                         !
 ! D64   D(2,5,10,11)          142.4496                                         !
 ! D65   D(6,5,10,4)          -165.1964                                         !
 ! D66   D(6,5,10,11)           15.6218                                         !
 ! D67   D(7,5,10,4)            78.5024                                         !
 ! D68   D(7,5,10,11)         -100.6795                                         !
 ! D69   D(75,8,31,2)           98.9055                                         !
 ! D70   D(75,8,31,4)          175.8013                                         !
 ! D71   D(75,8,31,9)         -107.7228                                         !
 ! D72   D(75,8,31,74)          -3.3595                                         !
 ! D73   D(31,9,18,17)          44.65                                           !
 ! D74   D(31,9,18,19)         170.2102                                         !
 ! D75   D(31,9,18,20)         -74.2706                                         !
 ! D76   D(48,9,18,17)         165.672                                          !
 ! D77   D(48,9,18,19)         -68.7679                                         !
 ! D78   D(48,9,18,20)          46.7513                                         !
 ! D79   D(49,9,18,17)         -78.662                                          !
 ! D80   D(49,9,18,19)          46.8981                                         !
 ! D81   D(49,9,18,20)         162.4174                                         !
 ! D82   D(18,9,31,1)           54.2015                                         !
 ! D83   D(18,9,31,2)          -32.8909                                         !
 ! D84   D(18,9,31,4)          -31.0293                                         !
 ! D85   D(18,9,31,8)         -116.3092                                         !
 ! D86   D(18,9,31,74)         149.0933                                         !
 ! D87   D(48,9,31,1)          -48.2081                                         !
 ! D88   D(48,9,31,2)         -135.3005                                         !
 ! D89   D(48,9,31,4)         -133.4388                                         !
 ! D90   D(48,9,31,8)          141.2813                                         !
 ! D91   D(48,9,31,74)          46.6837                                         !
 ! D92   D(49,9,31,1)          159.0305                                         !
 ! D93   D(49,9,31,2)           71.9381                                         !
 ! D94   D(49,9,31,4)           73.7997                                         !
 ! D95   D(49,9,31,8)          -11.4801                                         !
 ! D96   D(49,9,31,74)        -106.0777                                         !
 ! D97   D(18,9,48,50)         162.2422                                         !
 ! D98   D(18,9,48,54)          38.0704                                         !
 ! D99   D(18,9,48,58)         -81.9014                                         !
 ! D100  D(31,9,48,50)        -103.6095                                         !
 ! D101  D(31,9,48,54)         132.2187                                         !
 ! D102  D(31,9,48,58)          12.2469                                         !
 ! D103  D(49,9,48,50)          52.0583                                         !
 ! D104  D(49,9,48,54)         -72.1135                                         !
 ! D105  D(49,9,48,58)         167.9146                                         !
 ! D106  D(18,9,49,62)         166.469                                          !
 ! D107  D(18,9,49,66)          50.8726                                         !
 ! D108  D(18,9,49,70)         -69.9833                                         !
 ! D109  D(31,9,49,62)          70.5293                                         !
 ! D110  D(31,9,49,66)         -45.0671                                         !
 ! D111  D(31,9,49,70)        -165.923                                          !
 ! D112  D(48,9,49,62)         -84.5506                                         !
 ! D113  D(48,9,49,66)         159.853                                          !
 ! D114  D(48,9,49,70)          38.997                                          !
 ! D115  D(4,10,11,12)         179.9714                                         !
 ! D116  D(4,10,11,13)           0.4583                                         !
 ! D117  D(5,10,11,12)          -0.8524                                         !
 ! D118  D(5,10,11,13)         179.6346                                         !
 ! D119  D(10,11,13,14)        179.7184                                         !
 ! D120  D(10,11,13,15)         -0.328                                          !
 ! D121  D(12,11,13,14)          0.2147                                         !
 ! D122  D(12,11,13,15)       -179.8317                                         !
 ! D123  D(11,13,15,16)       -179.6491                                         !
 ! D124  D(11,13,15,17)         -0.1856                                         !
 ! D125  D(14,13,15,16)          0.3044                                         !
 ! D126  D(14,13,15,17)        179.7679                                         !
 ! D127  D(13,15,17,4)           0.6006                                         !
 ! D128  D(13,15,17,18)        179.8639                                         !
 ! D129  D(16,15,17,4)        -179.9259                                         !
 ! D130  D(16,15,17,18)         -0.6626                                         !
 ! D131  D(4,17,18,9)          -39.319                                          !
 ! D132  D(4,17,18,19)        -166.1518                                         !
 ! D133  D(4,17,18,20)          77.5732                                         !
 ! D134  D(15,17,18,9)         141.4131                                         !
 ! D135  D(15,17,18,19)         14.5804                                         !
 ! D136  D(15,17,18,20)       -101.6947                                         !
 ! D137  D(2,21,23,24)        -179.1082                                         !
 ! D138  D(2,21,23,25)          61.4831                                         !
 ! D139  D(2,21,23,26)         -59.9735                                         !
 ! D140  D(27,21,23,24)        -62.2369                                         !
 ! D141  D(27,21,23,25)        178.3545                                         !
 ! D142  D(27,21,23,26)         56.8978                                         !
 ! D143  D(32,21,23,24)         57.4271                                         !
 ! D144  D(32,21,23,25)        -61.9816                                         !
 ! D145  D(32,21,23,26)        176.5617                                         !
 ! D146  D(2,21,27,28)         169.6849                                         !
 ! D147  D(2,21,27,29)          51.0277                                         !
 ! D148  D(2,21,27,30)         -71.1261                                         !
 ! D149  D(23,21,27,28)         54.7029                                         !
 ! D150  D(23,21,27,29)        -63.9543                                         !
 ! D151  D(23,21,27,30)        173.8919                                         !
 ! D152  D(32,21,27,28)        -63.9397                                         !
 ! D153  D(32,21,27,29)        177.403                                          !
 ! D154  D(32,21,27,30)         55.2492                                         !
 ! D155  D(2,21,32,33)         179.9111                                         !
 ! D156  D(2,21,32,34)          60.4749                                         !
 ! D157  D(2,21,32,35)         -61.7693                                         !
 ! D158  D(23,21,32,33)        -61.5434                                         !
 ! D159  D(23,21,32,34)        179.0203                                         !
 ! D160  D(23,21,32,35)         56.7762                                         !
 ! D161  D(27,21,32,33)         56.4579                                         !
 ! D162  D(27,21,32,34)        -62.9784                                         !
 ! D163  D(27,21,32,35)        174.7774                                         !
 ! D164  D(2,22,36,37)        -175.4627                                         !
 ! D165  D(2,22,36,38)          64.7769                                         !
 ! D166  D(2,22,36,39)         -56.6092                                         !
 ! D167  D(40,22,36,37)        -59.961                                          !
 ! D168  D(40,22,36,38)       -179.7214                                         !
 ! D169  D(40,22,36,39)         58.8924                                         !
 ! D170  D(44,22,36,37)         58.5875                                         !
 ! D171  D(44,22,36,38)        -61.1729                                         !
 ! D172  D(44,22,36,39)        177.441                                          !
 ! D173  D(2,22,40,41)         169.7716                                         !
 ! D174  D(2,22,40,42)          50.8578                                         !
 ! D175  D(2,22,40,43)         -71.8465                                         !
 ! D176  D(36,22,40,41)         54.5679                                         !
 ! D177  D(36,22,40,42)        -64.3459                                         !
 ! D178  D(36,22,40,43)        172.9499                                         !
 ! D179  D(44,22,40,41)        -65.5221                                         !
 ! D180  D(44,22,40,42)        175.5641                                         !
 ! D181  D(44,22,40,43)         52.8598                                         !
 ! D182  D(2,22,44,45)         174.957                                          !
 ! D183  D(2,22,44,46)          56.3535                                         !
 ! D184  D(2,22,44,47)         -65.964                                          !
 ! D185  D(36,22,44,45)        -63.5503                                         !
 ! D186  D(36,22,44,46)        177.8462                                         !
 ! D187  D(36,22,44,47)         55.5287                                         !
 ! D188  D(40,22,44,45)         54.7023                                         !
 ! D189  D(40,22,44,46)        -63.9011                                         !
 ! D190  D(40,22,44,47)        173.7814                                         !
 ! D191  D(9,48,50,51)         169.4988                                         !
 ! D192  D(9,48,50,52)          50.807                                          !
 ! D193  D(9,48,50,53)         -71.3294                                         !
 ! D194  D(54,48,50,51)        -63.9168                                         !
 ! D195  D(54,48,50,52)        177.3914                                         !
 ! D196  D(54,48,50,53)         55.255                                          !
 ! D197  D(58,48,50,51)         54.8183                                         !
 ! D198  D(58,48,50,52)        -63.8735                                         !
 ! D199  D(58,48,50,53)        173.9901                                         !
 ! D200  D(9,48,54,55)         179.9257                                         !
 ! D201  D(9,48,54,56)          60.5093                                         !
 ! D202  D(9,48,54,57)         -61.7171                                         !
 ! D203  D(50,48,54,55)         56.3342                                         !
 ! D204  D(50,48,54,56)        -63.0822                                         !
 ! D205  D(50,48,54,57)        174.6915                                         !
 ! D206  D(58,48,54,55)        -61.7391                                         !
 ! D207  D(58,48,54,56)        178.8446                                         !
 ! D208  D(58,48,54,57)         56.6182                                         !
 ! D209  D(9,48,58,59)        -178.9167                                         !
 ! D210  D(9,48,58,60)          61.6157                                         !
 ! D211  D(9,48,58,61)         -59.6813                                         !
 ! D212  D(50,48,58,59)        -62.1063                                         !
 ! D213  D(50,48,58,60)        178.4261                                         !
 ! D214  D(50,48,58,61)         57.1292                                         !
 ! D215  D(54,48,58,59)         57.5312                                         !
 ! D216  D(54,48,58,60)        -61.9363                                         !
 ! D217  D(54,48,58,61)        176.7667                                         !
 ! D218  D(9,49,62,63)        -175.2626                                         !
 ! D219  D(9,49,62,64)          64.9708                                         !
 ! D220  D(9,49,62,65)         -56.4345                                         !
 ! D221  D(66,49,62,63)        -59.9332                                         !
 ! D222  D(66,49,62,64)       -179.6998                                         !
 ! D223  D(66,49,62,65)         58.8949                                         !
 ! D224  D(70,49,62,63)         58.7385                                         !
 ! D225  D(70,49,62,64)        -61.0282                                         !
 ! D226  D(70,49,62,65)        177.5665                                         !
 ! D227  D(9,49,66,67)         169.5072                                         !
 ! D228  D(9,49,66,68)          50.5809                                         !
 ! D229  D(9,49,66,69)         -72.0674                                         !
 ! D230  D(62,49,66,67)         54.3941                                         !
 ! D231  D(62,49,66,68)        -64.5322                                         !
 ! D232  D(62,49,66,69)        172.8195                                         !
 ! D233  D(70,49,66,67)        -65.7294                                         !
 ! D234  D(70,49,66,68)        175.3442                                         !
 ! D235  D(70,49,66,69)         52.6959                                         !
 ! D236  D(9,49,70,71)         174.9278                                         !
 ! D237  D(9,49,70,72)          56.2691                                         !
 ! D238  D(9,49,70,73)         -65.9701                                         !
 ! D239  D(62,49,70,71)        -63.5394                                         !
 ! D240  D(62,49,70,72)        177.802                                          !
 ! D241  D(62,49,70,73)         55.5628                                         !
 ! D242  D(66,49,70,71)         54.6918                                         !
 ! D243  D(66,49,70,72)        -63.9669                                         !
 ! D244  D(66,49,70,73)        173.7939                                         !
 --------------------------------------------------------------------------------
 Stoichiometry    C24H45NO3P2Ru(3)
 Framework group  C1[X(C24H45NO3P2Ru)]
 Deg. of freedom   222
 Full point group                 C1      NOp   1
 Largest Abelian subgroup         C1      NOp   1
 Largest concise Abelian subgroup C1      NOp   1
                         Standard orientation:                         
 ---------------------------------------------------------------------
 Center     Atomic      Atomic             Coordinates (Angstroms)
 Number     Number       Type             X           Y           Z
 ---------------------------------------------------------------------
      1          8           0       -0.032446   -0.636841   -2.032216
      2         15           0       -2.723397   -0.142851    0.041542
      3          8           0       -0.104175   -3.798835    0.002494
      4          7           0        0.007224    1.462756   -0.012885
      5          6           0       -2.273483    1.410333    0.968602
      6          1           0       -3.122486    2.103894    1.037147
      7          1           0       -2.049873    1.070654    1.992212
      8          8           0        0.017475   -0.626135    2.012360
      9         15           0        2.739689   -0.167340   -0.022577
     10          6           0       -1.068601    2.148650    0.441692
     11          6           0       -1.078880    3.547871    0.448637
     12          1           0       -1.959650    4.072781    0.820212
     13          6           0        0.027180    4.245487   -0.026596
     14          1           0        0.034706    5.337623   -0.032905
     15          6           0        1.123876    3.527323   -0.492744
     16          1           0        2.012500    4.035997   -0.868150
     17          6           0        1.094392    2.128349   -0.470833
     18          6           0        2.291687    1.368140   -0.983314
     19          1           0        3.144443    2.054768   -1.071869
     20          1           0        2.061916    1.004825   -1.997310
     21          6           0       -3.926612   -0.999639    1.246485
     22          6           0       -3.638304    0.496089   -1.506063
     23          6           0       -3.052539   -1.728275    2.283517
     24          1           0       -3.709694   -2.254636    2.996137
     25          1           0       -2.419318   -1.037088    2.856118
     26          1           0       -2.398444   -2.473981    1.807510
     27          6           0       -4.731616   -2.062345    0.483863
     28          1           0       -5.287784   -2.679508    1.209256
     29          1           0       -4.072779   -2.733514   -0.089267
     30          1           0       -5.464311   -1.622793   -0.206113
     31         44           0       -0.015854   -0.805730   -0.010058
     32          6           0       -4.871192   -0.040342    1.983179
     33          1           0       -5.526760   -0.624133    2.652488
     34          1           0       -5.514730    0.527387    1.299913
     35          1           0       -4.318141    0.673541    2.610811
     36          6           0       -3.727574   -0.678920   -2.495597
     37          1           0       -4.178782   -0.330145   -3.440052
     38          1           0       -4.343631   -1.504983   -2.116743
     39          1           0       -2.724423   -1.071225   -2.722573
     40          6           0       -2.761473    1.587918   -2.145405
     41          1           0       -3.180164    1.838148   -3.134792
     42          1           0       -1.726076    1.253520   -2.294893
     43          1           0       -2.751246    2.511695   -1.551381
     44          6           0       -5.025710    1.086965   -1.235356
     45          1           0       -5.428367    1.506930   -2.173733
     46          1           0       -4.982804    1.904473   -0.499603
     47          1           0       -5.741498    0.334380   -0.878713
     48          6           0        3.941364   -1.043930   -1.214634
     49          6           0        3.655807    0.503805    1.510393
     50          6           0        4.753686   -2.088647   -0.435244
     51          1           0        5.306537   -2.720127   -1.150859
     52          1           0        4.100738   -2.748871    0.157036
     53          1           0        5.489927   -1.631936    0.239848
     54          6           0        4.880836   -0.100141   -1.977223
     55          1           0        5.534599   -0.697377   -2.636422
     56          1           0        5.526462    0.483304   -1.309063
     57          1           0        4.324273    0.599171   -2.617971
     58          6           0        3.059132   -1.794905   -2.228781
     59          1           0        3.709039   -2.338842   -2.934899
     60          1           0        2.421959   -1.115691   -2.811568
     61          1           0        2.406515   -2.527516   -1.730349
     62          6           0        3.758619   -0.654026    2.518682
     63          1           0        4.207683   -0.285314    3.456606
     64          1           0        4.382285   -1.480192    2.152869
     65          1           0        2.759734   -1.052713    2.754159
     66          6           0        2.769092    1.595747    2.135764
     67          1           0        3.185172    1.863553    3.121692
     68          1           0        1.736758    1.252667    2.289659
     69          1           0        2.749189    2.511260    1.529470
     70          6           0        5.036946    1.101914    1.224951
     71          1           0        5.440651    1.540890    2.154211
     72          1           0        4.984583    1.906364    0.475483
     73          1           0        5.756891    0.348829    0.877511
     74          6           0       -0.061024   -2.631467   -0.003887
     75          1           0       -0.050946   -1.492761    2.435385
     76          1           0       -0.022483   -1.508848   -2.449837
 ---------------------------------------------------------------------
 Rotational constants (GHZ):           0.1978208           0.0923968           0.0829695
 Standard basis: def2SVP (5D, 7F)
 There are   719 symmetry adapted cartesian basis functions of A   symmetry.
 There are   684 symmetry adapted basis functions of A   symmetry.
   684 basis functions,  1154 primitive gaussians,   719 cartesian basis functions
   134 alpha electrons      132 beta electrons
       nuclear repulsion energy      4378.0950628710 Hartrees.
 NAtoms=   76 NActive=   76 NUniq=   76 SFac= 1.00D+00 NAtFMM=   60 NAOKFM=T Big=T
 Integral buffers will be    131072 words long.
 Regular integral format.
 Two-electron integral symmetry is turned on.
 Nuclear repulsion after empirical dispersion term =     4377.8806989140 Hartrees.
 ------------------------------------------------------------------------------
 Polarizable Continuum Model (PCM)
 =================================
 Model                : PCM.
 Atomic radii         : SMD-Coulomb.
 Polarization charges : Total charges.
 Charge compensation  : None.
 Solution method      : On-the-fly selection.
 Cavity type          : VdW (van der Waals Surface) (Alpha=1.000).
 Cavity algorithm     : GePol (No added spheres)
                        Default sphere list used, NSphG=   76.
                        Lebedev-Laikov grids with approx.  5.0 points / Ang**2.
                        Smoothing algorithm: York/Karplus (Gamma=1.0000).
                        Polarization charges: spherical gaussians, with
                                              point-specific exponents (IZeta= 3).
                        Self-potential: point-specific (ISelfS= 7).
                        Self-field    : sphere-specific E.n sum rule (ISelfD= 2).
 Solvent              : Water, Eps=  78.355300 Eps(inf)=   1.777849
 ------------------------------------------------------------------------------
 ------------------------------------------------------------------------------
 Atomic radii for non-electrostatic terms: SMD-CDS.
 ------------------------------------------------------------------------------
 Nuclear repulsion after PCM non-electrostatic terms =     4377.9024954269 Hartrees.
 One-electron integrals computed using PRISM.
   1 Symmetry operations used in ECPInt.
 ECPInt:  NShTT=   54615 NPrTT=  190596 LenC2=   47180 LenP2D=  110882.
 LDataN:  DoStor=T MaxTD1= 7 Len=  274
 NBasis=   684 RedAO= T EigKep=  4.83D-04  NBF=   684
 NBsUse=   684 1.00D-06 EigRej= -1.00D+00 NBFU=   684
 Defaulting to unpruned grid for atomic number  44.
 Initial guess from the checkpoint file:  "TDDFT_Ru_DFT_F_Prak_T.chk"
 B after Tr=     0.000000    0.000000    0.000000
         Rot=    1.000000   -0.000000    0.000000   -0.000000 Ang=   0.00 deg.
 Initial guess <Sx>= 0.0000 <Sy>= 0.0000 <Sz>= 1.0000 <S**2>= 2.0191 S= 1.0064
 Requested convergence on RMS density matrix=1.00D-08 within  32 cycles.
 Requested convergence on MAX density matrix=1.00D-06.
 Requested convergence on             energy=1.00D-06.
 No special actions if energy rises.
 Defaulting to unpruned grid for atomic number  44.
 Defaulting to unpruned grid for atomic number  44.
 Defaulting to unpruned grid for atomic number  44.
 Defaulting to unpruned grid for atomic number  44.
 Defaulting to unpruned grid for atomic number  44.
 Defaulting to unpruned grid for atomic number  44.
 Defaulting to unpruned grid for atomic number  44.
 Defaulting to unpruned grid for atomic number  44.
 Defaulting to unpruned grid for atomic number  44.
 Defaulting to unpruned grid for atomic number  44.
 Defaulting to unpruned grid for atomic number  44.
 Defaulting to unpruned grid for atomic number  44.
 Defaulting to unpruned grid for atomic number  44.
 Defaulting to unpruned grid for atomic number  44.
 Defaulting to unpruned grid for atomic number  44.
 Defaulting to unpruned grid for atomic number  44.
 Defaulting to unpruned grid for atomic number  44.
 Defaulting to unpruned grid for atomic number  44.
 Defaulting to unpruned grid for atomic number  44.
 Defaulting to unpruned grid for atomic number  44.
 Defaulting to unpruned grid for atomic number  44.
 Defaulting to unpruned grid for atomic number  44.
 Defaulting to unpruned grid for atomic number  44.
 Defaulting to unpruned grid for atomic number  44.
 Inv3:  Mode=1 IEnd=    74640432.
 Iteration    1 A*A^-1 deviation from unit magnitude is 3.33D-15 for    242.
 Iteration    1 A*A^-1 deviation from orthogonality  is 4.44D-15 for   4804   2415.
 Iteration    1 A^-1*A deviation from unit magnitude is 3.33D-15 for    215.
 Iteration    1 A^-1*A deviation from orthogonality  is 2.86D-13 for   4217   4168.
 Error on total polarization charges =  0.07682
 SCF Done:  E(UB3LYP) =  -1998.94861949     A.U. after    1 cycles
            NFock=  1  Conv=0.73D-09     -V/T= 2.0403
 <Sx>= 0.0000 <Sy>= 0.0000 <Sz>= 1.0000 <S**2>= 2.0191 S= 1.0064
 <L.S>=  0.00000000000    
 SMD-CDS (non-electrostatic) energy       (kcal/mol) =      13.68
 (included in total energy above)
 Annihilation of the first spin contaminant:
 S**2 before annihilation     2.0191,   after     2.0002
 QCSCF skips out because SCF is already converged.
 DoSCS=F DFT=T ScalE2(SS,OS)=  1.000000  1.000000
 ExpMin= 3.92D-02 ExpMax= 8.00D+03 ExpMxC= 1.20D+03 IAcc=3 IRadAn=         5 AccDes= 0.00D+00
 HarFok:  IExCor=  205 AccDes= 0.00D+00 IRadAn=         5 IDoV=-2 UseB2=F ITyADJ=14
 ICtDFT= 12500011 ScaDFX=  1.000000  1.000000  1.000000  1.000000
 Defaulting to unpruned grid for atomic number  44.
 GSVD:  LWork=       -2100 too small for GESVD, short by        9450 words or        9450 for optimal perf.
 Range of M.O.s used for correlation:    43   684
 NBasis=   684 NAE=   134 NBE=   132 NFC=    42 NFV=     0
 NROrb=    642 NOA=    92 NOB=    90 NVA=   550 NVB=   552

 **** Warning!!: The smallest alpha delta epsilon is  0.92117082D-01

 Ignoring spin specification with unrestricted ground state.
 NEqPCM:  Using non-equilibrium solvation (IEInf=1, Eps=  78.3553, EpsInf=   1.7778)
 Inv3:  Mode=1 IEnd=    74640432.
 Iteration    1 A*A^-1 deviation from unit magnitude is 3.33D-15 for   3594.
 Iteration    1 A*A^-1 deviation from orthogonality  is 2.32D-15 for   4824   4538.
 Iteration    1 A^-1*A deviation from unit magnitude is 3.11D-15 for   2221.
 Iteration    1 A^-1*A deviation from orthogonality  is 7.87D-14 for   2507   2431.
 Orbital symmetries:
 Alpha Orbitals:
       Occupied  (A) (A) (A) (A) (A) (A) (A) (A) (A) (A) (A) (A)
                 (A) (A) (A) (A) (A) (A) (A) (A) (A) (A) (A) (A)
                 (A) (A) (A) (A) (A) (A) (A) (A) (A) (A) (A) (A)
                 (A) (A) (A) (A) (A) (A) (A) (A) (A) (A) (A) (A)
                 (A) (A) (A) (A) (A) (A) (A) (A) (A) (A) (A) (A)
                 (A) (A) (A) (A) (A) (A) (A) (A) (A) (A) (A) (A)
                 (A) (A) (A) (A) (A) (A) (A) (A) (A) (A) (A) (A)
                 (A) (A) (A) (A) (A) (A) (A) (A) (A) (A) (A) (A)
                 (A) (A) (A) (A) (A) (A) (A) (A) (A) (A) (A) (A)
                 (A) (A) (A) (A) (A) (A) (A) (A) (A) (A) (A) (A)
                 (A) (A) (A) (A) (A) (A) (A) (A) (A) (A) (A) (A)
                 (A) (A)
       Virtual   (A) (A) (A) (A) (A) (A) (A) (A) (A) (A) (A) (A)
                 (A) (A) (A) (A) (A) (A) (A) (A) (A) (A) (A) (A)
                 (A) (A) (A) (A) (A) (A) (A) (A) (A) (A) (A) (A)
                 (A) (A) (A) (A) (A) (A) (A) (A) (A) (A) (A) (A)
                 (A) (A) (A) (A) (A) (A) (A) (A) (A) (A) (A) (A)
                 (A) (A) (A) (A) (A) (A) (A) (A) (A) (A) (A) (A)
                 (A) (A) (A) (A) (A) (A) (A) (A) (A) (A) (A) (A)
                 (A) (A) (A) (A) (A) (A) (A) (A) (A) (A) (A) (A)
                 (A) (A) (A) (A) (A) (A) (A) (A) (A) (A) (A) (A)
                 (A) (A) (A) (A) (A) (A) (A) (A) (A) (A) (A) (A)
                 (A) (A) (A) (A) (A) (A) (A) (A) (A) (A) (A) (A)
                 (A) (A) (A) (A) (A) (A) (A) (A) (A) (A) (A) (A)
                 (A) (A) (A) (A) (A) (A) (A) (A) (A) (A) (A) (A)
                 (A) (A) (A) (A) (A) (A) (A) (A) (A) (A) (A) (A)
                 (A) (A) (A) (A) (A) (A) (A) (A) (A) (A) (A) (A)
                 (A) (A) (A) (A) (A) (A) (A) (A) (A) (A) (A) (A)
                 (A) (A) (A) (A) (A) (A) (A) (A) (A) (A) (A) (A)
                 (A) (A) (A) (A) (A) (A) (A) (A) (A) (A) (A) (A)
                 (A) (A) (A) (A) (A) (A) (A) (A) (A) (A) (A) (A)
                 (A) (A) (A) (A) (A) (A) (A) (A) (A) (A) (A) (A)
                 (A) (A) (A) (A) (A) (A) (A) (A) (A) (A) (A) (A)
                 (A) (A) (A) (A) (A) (A) (A) (A) (A) (A) (A) (A)
                 (A) (A) (A) (A) (A) (A) (A) (A) (A) (A) (A) (A)
                 (A) (A) (A) (A) (A) (A) (A) (A) (A) (A) (A) (A)
                 (A) (A) (A) (A) (A) (A) (A) (A) (A) (A) (A) (A)
                 (A) (A) (A) (A) (A) (A) (A) (A) (A) (A) (A) (A)
                 (A) (A) (A) (A) (A) (A) (A) (A) (A) (A) (A) (A)
                 (A) (A) (A) (A) (A) (A) (A) (A) (A) (A) (A) (A)
                 (A) (A) (A) (A) (A) (A) (A) (A) (A) (A) (A) (A)
                 (A) (A) (A) (A) (A) (A) (A) (A) (A) (A) (A) (A)
                 (A) (A) (A) (A) (A) (A) (A) (A) (A) (A) (A) (A)
                 (A) (A) (A) (A) (A) (A) (A) (A) (A) (A) (A) (A)
                 (A) (A) (A) (A) (A) (A) (A) (A) (A) (A) (A) (A)
                 (A) (A) (A) (A) (A) (A) (A) (A) (A) (A) (A) (A)
                 (A) (A) (A) (A) (A) (A) (A) (A) (A) (A) (A) (A)
                 (A) (A) (A) (A) (A) (A) (A) (A) (A) (A) (A) (A)
                 (A) (A) (A) (A) (A) (A) (A) (A) (A) (A) (A) (A)
                 (A) (A) (A) (A) (A) (A) (A) (A) (A) (A) (A) (A)
                 (A) (A) (A) (A) (A) (A) (A) (A) (A) (A) (A) (A)
                 (A) (A) (A) (A) (A) (A) (A) (A) (A) (A) (A) (A)
                 (A) (A) (A) (A) (A) (A) (A) (A) (A) (A) (A) (A)
                 (A) (A) (A) (A) (A) (A) (A) (A) (A) (A) (A) (A)
                 (A) (A) (A) (A) (A) (A) (A) (A) (A) (A) (A) (A)
                 (A) (A) (A) (A) (A) (A) (A) (A) (A) (A) (A) (A)
                 (A) (A) (A) (A) (A) (A) (A) (A) (A) (A) (A) (A)
                 (A) (A) (A) (A) (A) (A) (A) (A) (A) (A)
 Beta  Orbitals:
       Occupied  (A) (A) (A) (A) (A) (A) (A) (A) (A) (A) (A) (A)
                 (A) (A) (A) (A) (A) (A) (A) (A) (A) (A) (A) (A)
                 (A) (A) (A) (A) (A) (A) (A) (A) (A) (A) (A) (A)
                 (A) (A) (A) (A) (A) (A) (A) (A) (A) (A) (A) (A)
                 (A) (A) (A) (A) (A) (A) (A) (A) (A) (A) (A) (A)
                 (A) (A) (A) (A) (A) (A) (A) (A) (A) (A) (A) (A)
                 (A) (A) (A) (A) (A) (A) (A) (A) (A) (A) (A) (A)
                 (A) (A) (A) (A) (A) (A) (A) (A) (A) (A) (A) (A)
                 (A) (A) (A) (A) (A) (A) (A) (A) (A) (A) (A) (A)
                 (A) (A) (A) (A) (A) (A) (A) (A) (A) (A) (A) (A)
                 (A) (A) (A) (A) (A) (A) (A) (A) (A) (A) (A) (A)
       Virtual   (A) (A) (A) (A) (A) (A) (A) (A) (A) (A) (A) (A)
                 (A) (A) (A) (A) (A) (A) (A) (A) (A) (A) (A) (A)
                 (A) (A) (A) (A) (A) (A) (A) (A) (A) (A) (A) (A)
                 (A) (A) (A) (A) (A) (A) (A) (A) (A) (A) (A) (A)
                 (A) (A) (A) (A) (A) (A) (A) (A) (A) (A) (A) (A)
                 (A) (A) (A) (A) (A) (A) (A) (A) (A) (A) (A) (A)
                 (A) (A) (A) (A) (A) (A) (A) (A) (A) (A) (A) (A)
                 (A) (A) (A) (A) (A) (A) (A) (A) (A) (A) (A) (A)
                 (A) (A) (A) (A) (A) (A) (A) (A) (A) (A) (A) (A)
                 (A) (A) (A) (A) (A) (A) (A) (A) (A) (A) (A) (A)
                 (A) (A) (A) (A) (A) (A) (A) (A) (A) (A) (A) (A)
                 (A) (A) (A) (A) (A) (A) (A) (A) (A) (A) (A) (A)
                 (A) (A) (A) (A) (A) (A) (A) (A) (A) (A) (A) (A)
                 (A) (A) (A) (A) (A) (A) (A) (A) (A) (A) (A) (A)
                 (A) (A) (A) (A) (A) (A) (A) (A) (A) (A) (A) (A)
                 (A) (A) (A) (A) (A) (A) (A) (A) (A) (A) (A) (A)
                 (A) (A) (A) (A) (A) (A) (A) (A) (A) (A) (A) (A)
                 (A) (A) (A) (A) (A) (A) (A) (A) (A) (A) (A) (A)
                 (A) (A) (A) (A) (A) (A) (A) (A) (A) (A) (A) (A)
                 (A) (A) (A) (A) (A) (A) (A) (A) (A) (A) (A) (A)
                 (A) (A) (A) (A) (A) (A) (A) (A) (A) (A) (A) (A)
                 (A) (A) (A) (A) (A) (A) (A) (A) (A) (A) (A) (A)
                 (A) (A) (A) (A) (A) (A) (A) (A) (A) (A) (A) (A)
                 (A) (A) (A) (A) (A) (A) (A) (A) (A) (A) (A) (A)
                 (A) (A) (A) (A) (A) (A) (A) (A) (A) (A) (A) (A)
                 (A) (A) (A) (A) (A) (A) (A) (A) (A) (A) (A) (A)
                 (A) (A) (A) (A) (A) (A) (A) (A) (A) (A) (A) (A)
                 (A) (A) (A) (A) (A) (A) (A) (A) (A) (A) (A) (A)
                 (A) (A) (A) (A) (A) (A) (A) (A) (A) (A) (A) (A)
                 (A) (A) (A) (A) (A) (A) (A) (A) (A) (A) (A) (A)
                 (A) (A) (A) (A) (A) (A) (A) (A) (A) (A) (A) (A)
                 (A) (A) (A) (A) (A) (A) (A) (A) (A) (A) (A) (A)
                 (A) (A) (A) (A) (A) (A) (A) (A) (A) (A) (A) (A)
                 (A) (A) (A) (A) (A) (A) (A) (A) (A) (A) (A) (A)
                 (A) (A) (A) (A) (A) (A) (A) (A) (A) (A) (A) (A)
                 (A) (A) (A) (A) (A) (A) (A) (A) (A) (A) (A) (A)
                 (A) (A) (A) (A) (A) (A) (A) (A) (A) (A) (A) (A)
                 (A) (A) (A) (A) (A) (A) (A) (A) (A) (A) (A) (A)
                 (A) (A) (A) (A) (A) (A) (A) (A) (A) (A) (A) (A)
                 (A) (A) (A) (A) (A) (A) (A) (A) (A) (A) (A) (A)
                 (A) (A) (A) (A) (A) (A) (A) (A) (A) (A) (A) (A)
                 (A) (A) (A) (A) (A) (A) (A) (A) (A) (A) (A) (A)
                 (A) (A) (A) (A) (A) (A) (A) (A) (A) (A) (A) (A)
                 (A) (A) (A) (A) (A) (A) (A) (A) (A) (A) (A) (A)
                 (A) (A) (A) (A) (A) (A) (A) (A) (A) (A) (A) (A)
                 (A) (A) (A) (A) (A) (A) (A) (A) (A) (A) (A) (A)
   200 initial guesses have been made.
 Convergence on wavefunction:    0.001000000000000
 Iteration     1 Dimension   200 NMult     0 NNew    200
 CISAX will form   120 AO SS matrices at one time.
 Defaulting to unpruned grid for atomic number  44.
 Defaulting to unpruned grid for atomic number  44.
 Defaulting to unpruned grid for atomic number  44.
 Defaulting to unpruned grid for atomic number  44.
 Defaulting to unpruned grid for atomic number  44.
 Defaulting to unpruned grid for atomic number  44.
 Defaulting to unpruned grid for atomic number  44.
 Defaulting to unpruned grid for atomic number  44.
 Defaulting to unpruned grid for atomic number  44.
 Defaulting to unpruned grid for atomic number  44.
 Defaulting to unpruned grid for atomic number  44.
 Defaulting to unpruned grid for atomic number  44.
 Defaulting to unpruned grid for atomic number  44.
 Defaulting to unpruned grid for atomic number  44.
 Defaulting to unpruned grid for atomic number  44.
 Defaulting to unpruned grid for atomic number  44.
 Defaulting to unpruned grid for atomic number  44.
 Defaulting to unpruned grid for atomic number  44.
 Defaulting to unpruned grid for atomic number  44.
 Defaulting to unpruned grid for atomic number  44.
 Defaulting to unpruned grid for atomic number  44.
 Defaulting to unpruned grid for atomic number  44.
 Defaulting to unpruned grid for atomic number  44.
 Defaulting to unpruned grid for atomic number  44.
 New state      2 was old state      5
 New state      3 was old state     10
 New state      4 was old state      2
 New state      5 was old state      3
 New state      6 was old state      4
 New state      8 was old state      6
 New state      9 was old state     12
 New state     10 was old state     25
 New state     11 was old state      8
 New state     12 was old state      9
 New state     13 was old state     28
 New state     14 was old state     11
 New state     15 was old state     24
 New state     16 was old state     13
 New state     17 was old state     31
 New state     18 was old state     17
 New state     19 was old state     14
 New state     20 was old state     16
 New state     21 was old state     15
 New state     22 was old state     63
 New state     23 was old state     50
 New state     24 was old state     18
 New state     25 was old state     21
 New state     26 was old state     30
 New state     27 was old state     19
 New state     28 was old state     20
 New state     29 was old state     42
 New state     30 was old state     29
 New state     31 was old state     61
 New state     32 was old state     22
 New state     33 was old state     56
 New state     34 was old state     23
 New state     35 was old state     38
 New state     36 was old state     89
 New state     37 was old state     33
 New state     38 was old state     71
 New state     39 was old state     27
 New state     40 was old state     34
 New state     41 was old state     98
 New state     42 was old state     26
 New state     43 was old state     53
 New state     44 was old state     35
 New state     45 was old state     36
 New state     46 was old state    191
 New state     47 was old state     40
 New state     48 was old state     37
 New state     49 was old state    101
 New state     50 was old state     70
 Iteration     2 Dimension   300 NMult   200 NNew    100
 New state      4 was old state      5
 New state      5 was old state      4
 New state     16 was old state     24
 New state     17 was old state     16
 New state     18 was old state     17
 New state     19 was old state     22
 New state     20 was old state     18
 New state     21 was old state     23
 New state     22 was old state     19
 New state     23 was old state     20
 New state     24 was old state     25
 New state     25 was old state     21
 New state     27 was old state     30
 New state     30 was old state     27
 New state     32 was old state     33
 New state     33 was old state     32
 New state     34 was old state     36
 New state     35 was old state     34
 New state     36 was old state     35
 New state     37 was old state     43
 New state     38 was old state     46
 New state     39 was old state     37
 New state     40 was old state     41
 New state     41 was old state     38
 New state     42 was old state     40
 New state     43 was old state     39
 New state     44 was old state     47
 New state     45 was old state     44
 New state     46 was old state     42
 New state     47 was old state     45
 New state     48 was old state     49
 New state     49 was old state     48
 Iteration     3 Dimension   400 NMult   300 NNew    100
 New state     15 was old state     16
 New state     16 was old state     15
 New state     23 was old state     24
 New state     24 was old state     23
 New state     33 was old state     34
 New state     34 was old state     33
 Iteration     4 Dimension   500 NMult   400 NNew    100
 Iteration     5 Dimension   578 NMult   500 NNew     78
 Iteration     6 Dimension   596 NMult   578 NNew     18
 ***********************************************************************
 Excited states from <AA,BB:AA,BB> singles matrix:
 ***********************************************************************
 
 ExtSpn:  IState=     1 X2= 1.001 Y2= 0.001 X2-Y2-1= 4.44D-16
          S2Grnd=  2.019 Ra=  0.049 Rb=  0.000 T=  0.002 S2Ext=  0.051 S2=  2.070
 ExtSpn:  IState=     2 X2= 1.003 Y2= 0.003 X2-Y2-1= 4.44D-16
          S2Grnd=  2.019 Ra=  0.009 Rb= -0.001 T= -0.007 S2Ext=  0.000 S2=  2.019
 ExtSpn:  IState=     3 X2= 1.004 Y2= 0.004 X2-Y2-1= 2.22D-16
          S2Grnd=  2.019 Ra=  0.000 Rb= -0.003 T= -0.004 S2Ext= -0.006 S2=  2.013
 ExtSpn:  IState=     4 X2= 1.001 Y2= 0.001 X2-Y2-1= 1.55D-15
          S2Grnd=  2.019 Ra=  0.018 Rb=  0.002 T= -0.007 S2Ext=  0.013 S2=  2.033
 ExtSpn:  IState=     5 X2= 1.000 Y2= 0.000 X2-Y2-1= 4.44D-16
          S2Grnd=  2.019 Ra=  0.061 Rb=  0.000 T=  0.002 S2Ext=  0.063 S2=  2.082
 ExtSpn:  IState=     6 X2= 1.001 Y2= 0.001 X2-Y2-1=-1.11D-15
          S2Grnd=  2.019 Ra=  0.024 Rb=  0.001 T= -0.002 S2Ext=  0.023 S2=  2.042
 ExtSpn:  IState=     7 X2= 1.002 Y2= 0.002 X2-Y2-1=-2.22D-16
          S2Grnd=  2.019 Ra=  0.020 Rb=  0.001 T= -0.001 S2Ext=  0.021 S2=  2.040
 ExtSpn:  IState=     8 X2= 1.003 Y2= 0.003 X2-Y2-1= 8.88D-16
          S2Grnd=  2.019 Ra=  0.009 Rb=  0.013 T= -0.001 S2Ext=  0.021 S2=  2.040
 ExtSpn:  IState=     9 X2= 1.003 Y2= 0.003 X2-Y2-1=-8.88D-16
          S2Grnd=  2.019 Ra=  0.008 Rb= -0.000 T= -0.007 S2Ext=  0.001 S2=  2.020
 ExtSpn:  IState=    10 X2= 1.003 Y2= 0.003 X2-Y2-1= 4.44D-16
          S2Grnd=  2.019 Ra=  0.004 Rb=  0.002 T= -0.007 S2Ext= -0.001 S2=  2.019
 ExtSpn:  IState=    11 X2= 1.000 Y2= 0.000 X2-Y2-1= 1.33D-15
          S2Grnd=  2.019 Ra=  0.075 Rb=  0.002 T=  0.006 S2Ext=  0.083 S2=  2.102
 ExtSpn:  IState=    12 X2= 1.013 Y2= 0.013 X2-Y2-1=-5.55D-16
          S2Grnd=  2.019 Ra=  0.156 Rb=  0.833 T=  0.555 S2Ext=  1.543 S2=  3.562
 ExtSpn:  IState=    13 X2= 1.001 Y2= 0.001 X2-Y2-1=-2.22D-16
          S2Grnd=  2.019 Ra=  0.032 Rb=  0.007 T= -0.002 S2Ext=  0.037 S2=  2.056
 ExtSpn:  IState=    14 X2= 1.010 Y2= 0.010 X2-Y2-1= 2.22D-16
          S2Grnd=  2.019 Ra=  0.154 Rb=  0.802 T=  0.377 S2Ext=  1.333 S2=  3.352
 ExtSpn:  IState=    15 X2= 1.013 Y2= 0.013 X2-Y2-1=-7.77D-16
          S2Grnd=  2.019 Ra=  0.211 Rb=  0.677 T=  0.375 S2Ext=  1.263 S2=  3.282
 ExtSpn:  IState=    16 X2= 1.003 Y2= 0.003 X2-Y2-1= 6.66D-16
          S2Grnd=  2.019 Ra=  0.037 Rb=  0.075 T=  0.050 S2Ext=  0.163 S2=  2.182
 ExtSpn:  IState=    17 X2= 1.003 Y2= 0.003 X2-Y2-1= 8.88D-16
          S2Grnd=  2.019 Ra=  0.020 Rb=  0.027 T=  0.011 S2Ext=  0.058 S2=  2.077
 ExtSpn:  IState=    18 X2= 1.005 Y2= 0.005 X2-Y2-1= 4.44D-16
          S2Grnd=  2.019 Ra=  0.488 Rb=  0.504 T=  0.987 S2Ext=  1.979 S2=  3.998
 ExtSpn:  IState=    19 X2= 1.004 Y2= 0.004 X2-Y2-1=-1.44D-15
          S2Grnd=  2.019 Ra=  0.375 Rb=  0.538 T=  0.864 S2Ext=  1.778 S2=  3.797
 ExtSpn:  IState=    20 X2= 1.003 Y2= 0.003 X2-Y2-1= 2.22D-16
          S2Grnd=  2.019 Ra=  0.145 Rb=  0.162 T=  0.119 S2Ext=  0.426 S2=  2.445
 ExtSpn:  IState=    21 X2= 1.008 Y2= 0.008 X2-Y2-1=-4.44D-16
          S2Grnd=  2.019 Ra=  0.363 Rb=  0.527 T=  0.390 S2Ext=  1.280 S2=  3.299
 ExtSpn:  IState=    22 X2= 1.001 Y2= 0.001 X2-Y2-1= 1.33D-15
          S2Grnd=  2.019 Ra=  0.103 Rb=  0.116 T=  0.016 S2Ext=  0.235 S2=  2.254
 ExtSpn:  IState=    23 X2= 1.002 Y2= 0.002 X2-Y2-1= 4.44D-16
          S2Grnd=  2.019 Ra=  0.081 Rb=  0.016 T=  0.040 S2Ext=  0.136 S2=  2.155
 ExtSpn:  IState=    24 X2= 1.002 Y2= 0.002 X2-Y2-1=-4.44D-16
          S2Grnd=  2.019 Ra=  0.244 Rb=  0.678 T=  0.123 S2Ext=  1.044 S2=  3.063
 ExtSpn:  IState=    25 X2= 1.001 Y2= 0.001 X2-Y2-1= 2.22D-16
          S2Grnd=  2.019 Ra=  0.727 Rb=  0.181 T=  0.067 S2Ext=  0.975 S2=  2.995
 ExtSpn:  IState=    26 X2= 1.002 Y2= 0.002 X2-Y2-1=-1.55D-15
          S2Grnd=  2.019 Ra=  0.053 Rb=  0.053 T= -0.068 S2Ext=  0.037 S2=  2.056
 ExtSpn:  IState=    27 X2= 1.002 Y2= 0.002 X2-Y2-1=-8.88D-16
          S2Grnd=  2.019 Ra=  0.046 Rb=  0.055 T= -0.035 S2Ext=  0.065 S2=  2.085
 ExtSpn:  IState=    28 X2= 1.001 Y2= 0.001 X2-Y2-1= 1.55D-15
          S2Grnd=  2.019 Ra=  0.664 Rb=  0.161 T=  0.107 S2Ext=  0.932 S2=  2.951
 ExtSpn:  IState=    29 X2= 1.001 Y2= 0.001 X2-Y2-1= 8.88D-16
          S2Grnd=  2.019 Ra=  0.032 Rb=  0.026 T= -0.009 S2Ext=  0.049 S2=  2.068
 ExtSpn:  IState=    30 X2= 1.000 Y2= 0.000 X2-Y2-1=-8.88D-16
          S2Grnd=  2.019 Ra=  0.002 Rb=  0.958 T=  0.032 S2Ext=  0.992 S2=  3.011
 ExtSpn:  IState=    31 X2= 1.003 Y2= 0.003 X2-Y2-1=-4.44D-16
          S2Grnd=  2.019 Ra=  0.122 Rb=  0.443 T=  0.228 S2Ext=  0.793 S2=  2.812
 ExtSpn:  IState=    32 X2= 1.003 Y2= 0.003 X2-Y2-1=-2.22D-16
          S2Grnd=  2.019 Ra=  0.155 Rb=  0.467 T=  0.320 S2Ext=  0.942 S2=  2.962
 ExtSpn:  IState=    33 X2= 1.006 Y2= 0.006 X2-Y2-1= 8.88D-16
          S2Grnd=  2.019 Ra=  0.113 Rb=  0.287 T=  0.231 S2Ext=  0.631 S2=  2.650
 ExtSpn:  IState=    34 X2= 1.000 Y2= 0.000 X2-Y2-1=-2.22D-16
          S2Grnd=  2.019 Ra=  0.004 Rb=  0.975 T=  0.077 S2Ext=  1.056 S2=  3.075
 ExtSpn:  IState=    35 X2= 1.001 Y2= 0.001 X2-Y2-1= 1.78D-15
          S2Grnd=  2.019 Ra=  0.066 Rb=  0.012 T=  0.018 S2Ext=  0.096 S2=  2.115
 ExtSpn:  IState=    36 X2= 1.001 Y2= 0.001 X2-Y2-1= 0.00D+00
          S2Grnd=  2.019 Ra=  0.401 Rb=  0.257 T= -0.575 S2Ext=  0.083 S2=  2.102
 ExtSpn:  IState=    37 X2= 1.006 Y2= 0.006 X2-Y2-1= 8.88D-16
          S2Grnd=  2.019 Ra=  0.187 Rb=  0.447 T=  0.445 S2Ext=  1.079 S2=  3.098
 ExtSpn:  IState=    38 X2= 1.002 Y2= 0.002 X2-Y2-1=-8.88D-16
          S2Grnd=  2.019 Ra=  0.117 Rb=  0.098 T= -0.156 S2Ext=  0.058 S2=  2.077
 ExtSpn:  IState=    39 X2= 1.002 Y2= 0.002 X2-Y2-1=-3.33D-16
          S2Grnd=  2.019 Ra=  0.187 Rb=  0.151 T=  0.102 S2Ext=  0.440 S2=  2.460
 ExtSpn:  IState=    40 X2= 1.003 Y2= 0.003 X2-Y2-1= 4.44D-16
          S2Grnd=  2.019 Ra=  0.382 Rb=  0.437 T=  0.769 S2Ext=  1.589 S2=  3.608
 ExtSpn:  IState=    41 X2= 1.003 Y2= 0.003 X2-Y2-1=-1.55D-15
          S2Grnd=  2.019 Ra=  0.121 Rb=  0.856 T=  0.095 S2Ext=  1.073 S2=  3.092
 ExtSpn:  IState=    42 X2= 1.002 Y2= 0.002 X2-Y2-1= 1.55D-15
          S2Grnd=  2.019 Ra=  0.746 Rb=  0.172 T=  0.180 S2Ext=  1.097 S2=  3.116
 ExtSpn:  IState=    43 X2= 1.000 Y2= 0.000 X2-Y2-1= 2.22D-16
          S2Grnd=  2.019 Ra=  0.961 Rb=  0.008 T= -0.068 S2Ext=  0.901 S2=  2.920
 ExtSpn:  IState=    44 X2= 1.003 Y2= 0.003 X2-Y2-1=-3.33D-16
          S2Grnd=  2.019 Ra=  0.153 Rb=  0.085 T=  0.097 S2Ext=  0.335 S2=  2.354
 ExtSpn:  IState=    45 X2= 1.002 Y2= 0.002 X2-Y2-1=-3.33D-16
          S2Grnd=  2.019 Ra=  0.409 Rb=  0.530 T= -0.380 S2Ext=  0.559 S2=  2.578
 ExtSpn:  IState=    46 X2= 1.000 Y2= 0.000 X2-Y2-1=-1.11D-16
          S2Grnd=  2.019 Ra=  0.088 Rb=  0.034 T= -0.015 S2Ext=  0.107 S2=  2.127
 ExtSpn:  IState=    47 X2= 1.000 Y2= 0.000 X2-Y2-1= 8.88D-16
          S2Grnd=  2.019 Ra=  0.464 Rb=  0.530 T=  0.032 S2Ext=  1.026 S2=  3.045
 ExtSpn:  IState=    48 X2= 1.004 Y2= 0.004 X2-Y2-1=-6.66D-16
          S2Grnd=  2.019 Ra=  0.624 Rb=  0.363 T=  0.677 S2Ext=  1.664 S2=  3.683
 ExtSpn:  IState=    49 X2= 1.001 Y2= 0.001 X2-Y2-1=-1.33D-15
          S2Grnd=  2.019 Ra=  0.148 Rb=  0.818 T= -0.040 S2Ext=  0.927 S2=  2.946
 ExtSpn:  IState=    50 X2= 1.002 Y2= 0.002 X2-Y2-1= 2.22D-16
          S2Grnd=  2.019 Ra=  0.189 Rb=  0.077 T= -0.083 S2Ext=  0.183 S2=  2.202
 Ground to excited state transition densities written to RWF  633
 Ground to excited state transition electric dipole moments (Au):
       state          X           Y           Z        Dip. S.      Osc.
         1        -0.1962     -0.0040      0.0281      0.0393      0.0017
         2         0.0717      0.0023      0.0006      0.0051      0.0002
         3        -0.0011      0.0045      0.0919      0.0085      0.0005
         4        -0.0299     -0.0868      0.0033      0.0084      0.0005
         5         0.0096      0.0742     -0.0019      0.0056      0.0003
         6         0.3159     -0.0125      0.0568      0.1032      0.0067
         7        -0.4857      0.0246      0.0675      0.2411      0.0166
         8        -0.2894      0.0083     -0.4367      0.2745      0.0198
         9         0.0020     -0.0010      0.2432      0.0592      0.0044
        10        -0.3716     -0.0146     -0.0127      0.1385      0.0109
        11        -0.0148      0.0018     -0.0085      0.0003      0.0000
        12        -0.0063     -0.2912      0.0014      0.0848      0.0074
        13        -0.0026      0.0149     -0.0111      0.0004      0.0000
        14         0.0524      0.1059     -0.0005      0.0140      0.0013
        15         0.0974     -0.1422     -0.0092      0.0298      0.0028
        16        -0.0071     -0.0965      0.0255      0.0100      0.0009
        17         1.4316      0.0056     -0.0448      2.0515      0.1929
        18         0.0677      0.0078     -0.0005      0.0046      0.0005
        19        -0.0882     -0.0826      0.0071      0.0147      0.0014
        20         0.0070     -0.2467     -0.0078      0.0610      0.0059
        21        -0.0051     -0.0212     -0.0030      0.0005      0.0000
        22         0.0219     -0.0529      0.0067      0.0033      0.0003
        23        -1.1984     -0.0015     -0.1770      1.4674      0.1486
        24         0.0229     -0.2302      0.0057      0.0535      0.0054
        25         0.0075      0.1022     -0.0092      0.0106      0.0011
        26         0.1633      0.0076      0.3004      0.1170      0.0121
        27        -0.2578     -0.0008      0.1956      0.1047      0.0109
        28        -0.0128     -0.2931      0.0146      0.0863      0.0090
        29         0.2385     -0.0070      0.0115      0.0571      0.0060
        30         0.0415     -0.0007      0.0002      0.0017      0.0002
        31         0.0021      0.2482      0.0141      0.0618      0.0066
        32        -0.0018      0.0798     -0.0155      0.0066      0.0007
        33        -0.0671      0.1552     -0.0118      0.0287      0.0031
        34         0.0845      0.0221      0.0008      0.0076      0.0008
        35        -0.0075     -0.1368      0.0076      0.0188      0.0021
        36         0.0598     -0.0232      0.1622      0.0304      0.0033
        37         0.0024     -0.0774      0.0184      0.0063      0.0007
        38         0.0592     -0.0022     -0.2561      0.0691      0.0076
        39         0.0738      0.0311      0.4758      0.2328      0.0259
        40        -0.0532     -0.0455      0.1647      0.0320      0.0036
        41         0.0005      0.0736      0.0218      0.0059      0.0007
        42        -0.0104     -0.1303      0.0046      0.0171      0.0020
        43        -0.0315      0.0074      0.0396      0.0026      0.0003
        44        -0.0175      0.1409      0.0038      0.0202      0.0024
        45        -0.6821      0.0070      0.1109      0.4776      0.0566
        46        -0.3224      0.0044     -0.0294      0.1048      0.0124
        47         0.2107     -0.0051     -0.0351      0.0457      0.0054
        48        -0.0034     -0.1207      0.0025      0.0146      0.0018
        49         0.6565      0.0598     -0.0911      0.4428      0.0540
        50         0.1094     -0.3780     -0.0323      0.1559      0.0191
 Ground to excited state transition velocity dipole moments (Au):
       state          X           Y           Z        Dip. S.      Osc.
         1         0.0158      0.0002     -0.0024      0.0003      0.0027
         2        -0.0018     -0.0003      0.0001      0.0000      0.0000
         3        -0.0004     -0.0002     -0.0063      0.0000      0.0003
         4         0.0026      0.0090     -0.0002      0.0001      0.0007
         5        -0.0009     -0.0023      0.0002      0.0000      0.0000
         6        -0.0340      0.0013     -0.0091      0.0012      0.0085
         7         0.0557     -0.0028     -0.0060      0.0032      0.0203
         8         0.0323     -0.0009      0.0361      0.0023      0.0145
         9         0.0009      0.0000     -0.0212      0.0005      0.0027
        10         0.0481      0.0012      0.0014      0.0023      0.0131
        11         0.0010     -0.0002      0.0010      0.0000      0.0000
        12         0.0009      0.0346     -0.0001      0.0012      0.0061
        13         0.0003     -0.0027      0.0015      0.0000      0.0000
        14        -0.0072     -0.0129      0.0002      0.0002      0.0011
        15        -0.0134      0.0178      0.0010      0.0005      0.0024
        16         0.0011      0.0120     -0.0024      0.0002      0.0007
        17        -0.1957     -0.0007      0.0062      0.0383      0.1811
        18        -0.0096     -0.0013     -0.0003      0.0001      0.0004
        19         0.0131      0.0144      0.0016      0.0004      0.0018
        20        -0.0007      0.0429      0.0001      0.0018      0.0084
        21         0.0009      0.0044      0.0007      0.0000      0.0001
        22        -0.0032      0.0065     -0.0011      0.0001      0.0002
        23         0.1859      0.0001      0.0339      0.0357      0.1566
        24        -0.0036      0.0345     -0.0009      0.0012      0.0053
        25        -0.0012     -0.0149      0.0015      0.0002      0.0010
        26        -0.0204     -0.0012     -0.0405      0.0021      0.0089
        27         0.0336      0.0005     -0.0258      0.0018      0.0077
        28         0.0020      0.0425     -0.0020      0.0018      0.0077
        29        -0.0354      0.0010     -0.0038      0.0013      0.0054
        30        -0.0078      0.0001      0.0006      0.0001      0.0003
        31        -0.0003     -0.0386     -0.0018      0.0015      0.0062
        32         0.0003     -0.0107      0.0017      0.0001      0.0005
        33         0.0107     -0.0253      0.0017      0.0008      0.0031
        34        -0.0139     -0.0037      0.0009      0.0002      0.0008
        35         0.0013      0.0267     -0.0027      0.0007      0.0029
        36        -0.0094      0.0038     -0.0136      0.0003      0.0012
        37        -0.0001      0.0106     -0.0060      0.0001      0.0006
        38        -0.0109      0.0005      0.0363      0.0014      0.0058
        39        -0.0090     -0.0050     -0.0882      0.0079      0.0315
        40         0.0094      0.0071     -0.0333      0.0012      0.0050
        41        -0.0001     -0.0113     -0.0035      0.0001      0.0005
        42         0.0017      0.0246     -0.0006      0.0006      0.0023
        43         0.0041     -0.0010     -0.0064      0.0001      0.0002
        44         0.0028     -0.0182     -0.0005      0.0003      0.0013
        45         0.1183     -0.0011     -0.0203      0.0144      0.0541
        46         0.0557     -0.0007      0.0054      0.0031      0.0117
        47        -0.0348      0.0008      0.0042      0.0012      0.0046
        48         0.0004      0.0197     -0.0003      0.0004      0.0014
        49        -0.1206     -0.0103      0.0192      0.0150      0.0547
        50        -0.0205      0.0654      0.0063      0.0047      0.0172
 Ground to excited state transition magnetic dipole moments (Au):
       state          X           Y           Z
         1        -0.0574     -0.0070     -0.3036
         2         0.0001      0.0000     -0.8301
         3         0.7378      0.0065      0.0516
         4         0.0041      0.0048      0.0151
         5        -0.0006      0.0276     -0.0026
         6         0.0124     -0.0239     -0.1857
         7         0.0061     -0.0140      0.7196
         8         0.0270      0.0072      0.1750
         9        -0.1923     -0.0004     -0.0845
        10         0.0876     -0.0063     -0.7609
        11        -0.0427     -0.0092     -0.1234
        12         0.0050     -0.0365     -0.0041
        13        -0.0304     -0.3856      0.0059
        14        -0.0101     -0.3102     -0.0259
        15         0.0054      0.0274     -0.0731
        16        -0.0222     -0.8576      0.0096
        17        -0.0633      0.0040     -1.1759
        18        -0.0107     -0.0016     -0.0704
        19         0.0937     -0.0213      0.0537
        20        -0.0323     -0.0498     -0.0233
        21        -0.0051     -0.0133     -0.0015
        22         0.0038     -0.0434     -0.0132
        23         0.0561      0.0068      0.3504
        24         0.0021     -0.1714     -0.0009
        25         0.0058     -0.2147      0.0023
        26        -0.2499      0.0443     -0.0861
        27        -0.1433      0.0239      0.2027
        28         0.0044     -0.0320     -0.0039
        29         0.1058     -0.0115     -0.0182
        30         0.0559      0.0020      0.1292
        31         0.0230      0.0693     -0.0016
        32        -0.0625      0.1185     -0.0196
        33        -0.0134      0.1124      0.0438
        34        -0.0765      0.0086     -0.0644
        35        -0.0494     -0.2499     -0.0202
        36         1.0776     -0.0062      0.1388
        37        -0.1401      0.0882     -0.0366
        38        -0.8238      0.0230     -0.1307
        39         0.5494     -0.0316     -0.2812
        40         0.0711      0.0030     -0.1305
        41         0.0903     -0.0006      0.0158
        42         0.0212     -0.1459      0.0353
        43        -0.0892     -0.0381     -0.1801
        44         0.0091     -0.6848      0.0932
        45        -0.3411     -0.0343     -1.1188
        46        -0.0973      0.0034     -0.1719
        47         0.0339      0.0055      0.1931
        48         0.0052      0.1345     -0.0157
        49         0.2088      0.0497      0.6382
        50         0.0623     -0.1179      0.1955
 Ground to excited state transition velocity quadrupole moments (Au):
       state          XX          YY          ZZ          XY          XZ          YZ
         1        -0.0009      0.0028     -0.0011     -0.0397      0.0005     -0.0003
         2         0.0025     -0.0017      0.0009      0.0089     -0.0003      0.0044
         3         0.0010     -0.0007      0.0005     -0.0111     -0.0001      0.0075
         4        -0.0333      0.1342     -0.0912     -0.0033     -0.0183      0.0027
         5         0.0345     -0.0004      0.0196     -0.0001     -0.0284     -0.0001
         6         0.0095     -0.0021     -0.0008      0.0351      0.0005     -0.0555
         7        -0.0142      0.0061     -0.0005     -0.0574      0.0012      0.0345
         8        -0.0100     -0.0019      0.0012      0.0214     -0.0017     -0.0528
         9         0.0058      0.0024     -0.0004     -0.0226      0.0006      0.0090
        10         0.0087     -0.0004      0.0011     -0.0417      0.0042      0.0298
        11         0.0016     -0.0037      0.0013      0.0166     -0.0027     -0.0132
        12         0.0203      0.0419     -0.0072     -0.0030     -0.0060     -0.0012
        13         0.0022      0.0194     -0.0136      0.0007     -0.1013      0.0011
        14        -0.1208      0.0481     -0.0035      0.0045     -0.0039     -0.0026
        15        -0.0452      0.0919     -0.0285      0.0024      0.0021     -0.0112
        16        -0.0205     -0.0599      0.0580     -0.0036      0.0381      0.0065
        17        -0.0344     -0.0088      0.0040      0.0140     -0.0061     -0.1246
        18         0.0049     -0.0043      0.0007      0.0102     -0.0007     -0.0093
        19        -0.1413      0.0747     -0.0117     -0.0077      0.0055      0.0015
        20        -0.4086      0.1696     -0.0246     -0.0020      0.0231      0.0015
        21        -0.0502     -0.1362      0.0303     -0.0061      0.0283      0.0017
        22         0.0076      0.0907     -0.0328      0.0053     -0.0108     -0.0032
        23         0.0277      0.0052     -0.0067     -0.2330      0.0041      0.0937
        24        -0.1336      0.1887     -0.0284      0.0058     -0.0125     -0.0005
        25         0.0273      0.0094      0.0020     -0.0005      0.0337     -0.0029
        26        -0.0105     -0.0003      0.0026     -0.0099      0.0059      0.0959
        27        -0.0034      0.0019      0.0043     -0.0528      0.0008      0.1220
        28        -0.0606      0.0904     -0.0299     -0.0036     -0.0141      0.0031
        29         0.0173     -0.0005     -0.0035      0.0468     -0.0035     -0.0261
        30        -0.0015      0.0041     -0.0021     -0.0111     -0.0007      0.0048
        31         0.1217     -0.1850      0.0262      0.0017     -0.0475      0.0032
        32         0.0412     -0.0185     -0.0214      0.0016     -0.0223     -0.0006
        33        -0.6020     -0.1328      0.1698      0.0004     -0.0054      0.0093
        34        -0.0517     -0.0195      0.0167     -0.0272      0.0012     -0.0161
        35        -0.3352      0.0065      0.0361     -0.0164      0.2140      0.0017
        36        -0.0778     -0.0338      0.0384      0.0545      0.0038     -0.0364
        37        -0.2191     -0.1741      0.1610     -0.0301     -0.0285      0.0092
        38         0.0193     -0.0009     -0.0039     -0.0052      0.0037     -0.0553
        39         0.0370      0.0325     -0.0260     -0.2597      0.0100      0.0370
        40        -0.0104     -0.0328      0.0309     -0.1420      0.0006      0.0243
        41         0.1359     -0.1132      0.0359     -0.0062      0.0153      0.0036
        42        -0.2539      0.1673     -0.0294     -0.0005      0.0817      0.0061
        43        -0.0154     -0.0001      0.0008      0.0067      0.0244     -0.0193
        44        -0.2757      0.0729     -0.0270     -0.0017      0.4516      0.0111
        45         0.0026     -0.0028      0.0042      0.1185      0.0178     -0.0994
        46        -0.0093      0.0048     -0.0069      0.0154     -0.0085      0.1311
        47         0.0012     -0.0006      0.0001     -0.0719     -0.0005      0.0261
        48        -0.1278      0.0883     -0.0222      0.0014     -0.0858     -0.0012
        49        -0.1525      0.0592     -0.0387     -0.0388     -0.0593      0.0216
        50         0.8515     -0.3423      0.2215     -0.0351      0.3337      0.0114
 <0|del|b> * <b|rxdel|0> + <0|del|b> * <b|delr+rdel|0>
 Rotatory Strengths (R) in cgs (10**-40 erg-esu-cm/Gauss)
       state          XX          YY          ZZ    R(velocity)    E-M Angle
         1         4.6505     -1.4951     -5.0244     -0.6230       91.95
         2        -0.4398     -0.4947      0.0443     -0.2967       90.00
         3        -1.1252     -3.0841     -1.3257     -1.8450       97.75
         4         0.8596      0.0561     -0.4949      0.1403       90.00
         5        -0.5202      0.0005      0.0085     -0.1704       90.00
         6         4.8332     12.5699     -8.4843      2.9729       79.27
         7       -13.5070     -8.2916     -5.2826     -9.0271       95.63
         8        23.2101     15.4563      8.4327     15.6997       33.21
         9         7.2004      3.6569     -0.5513      3.4353       68.61
        10        -3.2865     13.9981      8.3276      6.3464       85.06
        11        -0.3054     -0.5637     -0.0793     -0.3161       90.00
        12        -2.8693      0.0097     -3.9852     -2.2816      168.60
        13         2.0823     -0.0069      3.4931      1.8562       29.32
        14        10.1322      0.2180     10.5428      6.9643       27.68
        15         0.9583      0.0045      0.7660      0.5763       78.67
        16       -27.1085     -0.1247    -24.8482    -17.3605      168.60
        17       -17.9722     73.7470    -30.0601      8.5716       88.73
        18         0.0526      0.5338      0.0408      0.2090       79.25
        19        -0.7609      3.2616      2.3814      1.6274       62.13
        20        -7.5814      0.0485     -2.7120     -3.4150      140.69
        21        -0.4494      0.0001      0.1439     -0.1018       90.00
        22        -0.4793      0.0437     -0.8823     -0.4393      147.07
        23         9.2719    110.8722    -16.2765     34.6226       70.56
        24       -12.7312     -0.0005    -14.7529     -9.1616      174.49
        25         8.5653      0.0010      6.2122      4.9262        8.03
        26         8.7756     14.2301     15.9922     12.9993       45.40
        27        -8.7413    -16.5647    -20.1881    -15.1647      161.69
        28        -1.6834      0.0356     -4.4027     -2.0168      165.74
        29        -0.2642     -5.7557    -10.4851     -5.5017      163.44
        30         0.1457     -0.8869     -0.8909     -0.5440      109.34
        31        -9.9816     -0.0066     -1.8838     -3.9573      161.71
        32        -3.3997     -0.1179     -2.3104     -1.9427      153.88
        33        -6.3467      0.0665     -6.4374     -4.2392      150.73
        34        -0.2354      2.7268      1.7488      1.4134       47.63
        35       -26.5034     -0.1172     -2.2154     -9.6120      166.87
        36        -5.7282    -23.3950    -22.4159    -17.1797      130.66
        37         3.5110      0.1027      1.3775      1.6637       55.71
        38       -10.4966     10.7514     17.9116      6.0555       82.26
        39       101.5376     -7.2060     -9.5827     28.2496       68.63
        40        19.1748      1.0746      0.9771      7.0755       16.48
        41         0.2994     -0.1851     -0.3667     -0.0842       90.00
        42       -11.4133      0.0480     -3.1531     -4.8395      162.98
        43         2.3827      1.5240     -0.5550      1.1172       58.28
        44        41.7185      0.0144      8.5667     16.7666       12.34
        45        40.5928    -53.7152    -56.9019    -23.3415       97.19
        46        -1.7099      1.7106    -25.2622     -8.4205      125.11
        47         1.0235     -1.9091     -0.5226     -0.4694       92.97
        48         8.5420      0.0122      1.8941      3.4828        5.98
        49        20.0617    -28.5792    -43.4282    -17.3153       99.37
        50       -55.0200     -0.1250     25.2103     -9.9782      118.45
 1/2[<0|r|b>*<b|rxdel|0> + (<0|rxdel|b>*<b|r|0>)*]
 Rotatory Strengths (R) in cgs (10**-40 erg-esu-cm/Gauss)
       state          XX          YY          ZZ     R(length)
         1        -7.9637     -0.0195      6.0273     -0.6520
         2        -0.0051     -0.0000      0.3312      0.1087
         3         0.5572     -0.0207     -3.3504     -0.9380
         4         0.0859      0.2934     -0.0353      0.1147
         5         0.0039     -1.4491     -0.0035     -0.4829
         6        -2.7729     -0.2110      7.4584      1.4915
         7         2.0957      0.2430    -34.3520    -10.6711
         8         5.5327     -0.0423     54.0458     19.8454
         9         0.2749     -0.0003     14.5399      4.9382
        10        23.0207     -0.0645     -6.8107      5.3819
        11        -0.4458      0.0120     -0.7450     -0.3929
        12         0.0224     -7.5198      0.0042     -2.4978
        13        -0.0565      4.0618      0.0463      1.3505
        14         0.3756     23.2340     -0.0086      7.8670
        15        -0.3729      2.7601     -0.4775      0.6366
        16        -0.1120    -58.5055     -0.1727    -19.5968
        17        64.0573     -0.0160    -37.2889      8.9175
        18         0.5126      0.0087     -0.0232      0.1660
        19         5.8477     -1.2418     -0.2710      1.4450
        20         0.1595     -8.6923     -0.1281     -2.8870
        21        -0.0184     -0.1994     -0.0031     -0.0737
        22        -0.0589     -1.6227      0.0623     -0.5398
        23        47.5376      0.0070     43.8551     30.4666
        24        -0.0344    -27.9009      0.0035     -9.3106
        25        -0.0307     15.5135      0.0147      5.1658
        26        28.8568     -0.2385     18.2963     15.6382
        27       -26.1167      0.0129    -28.0430    -18.0489
        28         0.0401     -6.6364      0.0404     -2.1853
        29       -17.8397     -0.0573      0.1486     -5.9161
        30        -1.6386      0.0010     -0.0176     -0.5517
        31        -0.0349    -12.1687      0.0162     -4.0625
        32        -0.0804     -6.6883     -0.2158     -2.3282
        33        -0.6350    -12.3417      0.3644     -4.2041
        34         4.5735     -0.1349      0.0384      1.4923
        35        -0.2628    -24.1630      0.1077     -8.1061
        36       -45.5376     -0.1017    -15.9160    -20.5185
        37         0.2355      4.8272      0.4775      1.8467
        38        34.4827      0.0365    -23.6638      3.6185
        39       -28.6609      0.6938     94.6379     22.2236
        40         2.6769      0.0972     15.2026      5.9922
        41        -0.0326      0.0304     -0.2433     -0.0819
        42         0.1565    -13.4422     -0.1154     -4.4670
        43        -1.9853      0.1992      5.0395      1.0845
        44         0.1127     68.2062     -0.2488     22.6900
        45      -164.5346      0.1708     87.7569    -25.5356
        46       -22.1945     -0.0105     -3.5755     -8.5935
        47        -5.0445      0.0199      4.7953     -0.0765
        48         0.0125     11.4785      0.0275      3.8395
        49       -96.9368     -2.0997     41.0983    -19.3127
        50        -4.8180    -31.5152      4.4658    -10.6225
  1/2[<0|del|b>*<b|r|0> + (<0|r|b>*<b|del|0>)*] (Au)
       state          X           Y           Z        Dip. S.   Osc.(frdel)
         1        -0.0031     -0.0000     -0.0001      0.0032      0.0021
         2        -0.0001     -0.0000      0.0000      0.0001      0.0001
         3         0.0000     -0.0000     -0.0006      0.0006      0.0004
         4        -0.0001     -0.0008     -0.0000      0.0009      0.0006
         5        -0.0000     -0.0002     -0.0000      0.0002      0.0001
         6        -0.0107     -0.0000     -0.0005      0.0113      0.0075
         7        -0.0271     -0.0001     -0.0004      0.0275      0.0184
         8        -0.0094     -0.0000     -0.0158      0.0251      0.0168
         9         0.0000     -0.0000     -0.0052      0.0052      0.0034
        10        -0.0179     -0.0000     -0.0000      0.0179      0.0120
        11        -0.0000     -0.0000     -0.0000      0.0000      0.0000
        12        -0.0000     -0.0101     -0.0000      0.0101      0.0067
        13        -0.0000     -0.0000     -0.0000      0.0001      0.0000
        14        -0.0004     -0.0014     -0.0000      0.0017      0.0012
        15        -0.0013     -0.0025     -0.0000      0.0038      0.0026
        16        -0.0000     -0.0012     -0.0001      0.0012      0.0008
        17        -0.2801     -0.0000     -0.0003      0.2804      0.1869
        18        -0.0007     -0.0000      0.0000      0.0007      0.0004
        19        -0.0012     -0.0012      0.0000      0.0023      0.0016
        20        -0.0000     -0.0106     -0.0000      0.0106      0.0071
        21        -0.0000     -0.0001     -0.0000      0.0001      0.0001
        22        -0.0001     -0.0003     -0.0000      0.0004      0.0003
        23        -0.2227     -0.0000     -0.0060      0.2287      0.1525
        24        -0.0001     -0.0079     -0.0000      0.0080      0.0054
        25        -0.0000     -0.0015     -0.0000      0.0015      0.0010
        26        -0.0033     -0.0000     -0.0122      0.0155      0.0103
        27        -0.0087     -0.0000     -0.0050      0.0137      0.0091
        28        -0.0000     -0.0125     -0.0000      0.0125      0.0084
        29        -0.0084     -0.0000     -0.0000      0.0085      0.0057
        30        -0.0003     -0.0000      0.0000      0.0003      0.0002
        31        -0.0000     -0.0096     -0.0000      0.0096      0.0064
        32        -0.0000     -0.0009     -0.0000      0.0009      0.0006
        33        -0.0007     -0.0039     -0.0000      0.0047      0.0031
        34        -0.0012     -0.0001      0.0000      0.0013      0.0008
        35        -0.0000     -0.0037     -0.0000      0.0037      0.0025
        36        -0.0006     -0.0001     -0.0022      0.0029      0.0019
        37        -0.0000     -0.0008     -0.0001      0.0009      0.0006
        38        -0.0006     -0.0000     -0.0093      0.0100      0.0066
        39        -0.0007     -0.0002     -0.0420      0.0428      0.0285
        40        -0.0005     -0.0003     -0.0055      0.0063      0.0042
        41        -0.0000     -0.0008     -0.0001      0.0009      0.0006
        42        -0.0000     -0.0032     -0.0000      0.0032      0.0021
        43        -0.0001     -0.0000     -0.0003      0.0004      0.0003
        44        -0.0000     -0.0026     -0.0000      0.0026      0.0017
        45        -0.0807     -0.0000     -0.0023      0.0830      0.0553
        46        -0.0179     -0.0000     -0.0002      0.0181      0.0121
        47        -0.0073     -0.0000     -0.0001      0.0075      0.0050
        48        -0.0000     -0.0024     -0.0000      0.0024      0.0016
        49        -0.0792     -0.0006     -0.0017      0.0815      0.0544
        50        -0.0022     -0.0247     -0.0002      0.0272      0.0181

 Excitation energies and oscillator strengths:
 
 Excited State   1:  3.046-A      1.7258 eV  718.40 nm  f=0.0017  <S**2>=2.070
    134A ->135A        0.92317
    131B ->133B        0.12566
    132B ->133B        0.35061
 This state for optimization and/or second-order correction.
 Total Energy, E(TD-HF/TD-DFT) =  -1998.88519622    
 Copying the excited state density for this state as the 1-particle RhoCI density.
 
 Excited State   2:  3.013-A      1.7381 eV  713.34 nm  f=0.0002  <S**2>=2.019
    134A ->135A       -0.37623
    131B ->133B        0.31894
    132B ->133B        0.85545
 
 Excited State   3:  3.009-A      2.1837 eV  567.76 nm  f=0.0005  <S**2>=2.013
    130B ->133B        0.86737
    131B ->133B       -0.37557
    132B ->133B        0.14487
    132B ->135B        0.23985
 
 Excited State   4:  3.022-A      2.3015 eV  538.71 nm  f=0.0005  <S**2>=2.033
    124A ->137A        0.10016
    134A ->137A        0.96683
    134A ->142A        0.12715
 
 Excited State   5:  3.054-A      2.3633 eV  524.62 nm  f=0.0003  <S**2>=2.082
    134A ->136A        0.99772
 
 Excited State   6:  3.028-A      2.6540 eV  467.15 nm  f=0.0067  <S**2>=2.042
    134A ->138A        0.93012
    131B ->135B       -0.15675
    132B ->135B       -0.27068
 
 Excited State   7:  3.026-A      2.8173 eV  440.08 nm  f=0.0166  <S**2>=2.040
    134A ->139A        0.91234
    130B ->135B       -0.14671
    131B ->133B       -0.15449
    132B ->135B       -0.31012
 
 Excited State   8:  3.027-A      2.9367 eV  422.19 nm  f=0.0198  <S**2>=2.040
    134A ->139A        0.24576
    130B ->133B        0.28970
    131B ->133B        0.78795
    131B ->135B        0.16908
    132B ->133B       -0.31010
    132B ->135B        0.29558
 
 Excited State   9:  3.013-A      3.0418 eV  407.61 nm  f=0.0044  <S**2>=2.020
    134A ->138A        0.31492
    134A ->139A        0.20036
    130B ->133B       -0.36942
    131B ->133B       -0.27221
    131B ->135B        0.24513
    132B ->135B        0.75175
 
 Excited State  10:  3.012-A      3.2152 eV  385.61 nm  f=0.0109  <S**2>=2.019
    134A ->139A        0.19803
    130B ->135B        0.87131
    131B ->135B       -0.39918
 
 Excited State  11:  3.067-A      3.4437 eV  360.03 nm  f=0.0000  <S**2>=2.102
    133A ->135A        0.99298
 
 Excited State  12:  3.905-A      3.5389 eV  350.34 nm  f=0.0074  <S**2>=3.562
    123A ->135A       -0.15435
    130A ->136A       -0.24613
    131A ->135A       -0.18721
    131A ->138A       -0.11141
    122B ->134B        0.14887
    129B ->136B        0.24805
    131B ->134B        0.27740
    132B ->134B        0.78641
    132B ->137B        0.16709
 
 Excited State  13:  3.037-A      3.6099 eV  343.46 nm  f=0.0000  <S**2>=2.056
    133A ->137A        0.90735
    133A ->138A        0.10139
    133A ->140A       -0.12217
    133A ->142A        0.16709
    128B ->133B       -0.25997
 
 Excited State  14:  3.796-A      3.7517 eV  330.48 nm  f=0.0013  <S**2>=3.352
    123A ->135A       -0.13499
    130A ->136A       -0.30821
    122B ->134B        0.13403
    128B ->133B        0.10381
    129B ->133B        0.12346
    129B ->136B        0.29158
    131B ->134B        0.62904
    132B ->134B       -0.50138
    132B ->137B       -0.10463
 
 Excited State  15:  3.759-A      3.8089 eV  325.51 nm  f=0.0028  <S**2>=3.282
    123A ->135A        0.14475
    130A ->136A        0.37717
    131A ->138A       -0.11087
    134A ->140A       -0.15823
    122B ->134B       -0.15373
    128B ->133B       -0.20458
    129B ->133B       -0.18438
    129B ->136B       -0.35246
    130B ->134B       -0.12884
    131B ->134B        0.66026
    132B ->137B        0.16215
 
 Excited State  16:  3.119-A      3.8134 eV  325.12 nm  f=0.0009  <S**2>=2.182
    130A ->136A        0.14876
    133A ->137A        0.23768
    128B ->133B        0.87516
    129B ->133B        0.20775
    129B ->136B       -0.14919
    132B ->134B        0.11204
 
 Excited State  17:  3.051-A      3.8380 eV  323.04 nm  f=0.1929  <S**2>=2.077
    134A ->141A        0.31160
    130B ->135B        0.39793
    131B ->135B        0.78982
    132B ->135B       -0.27020
 
 Excited State  18:  4.122-A      3.9621 eV  312.92 nm  f=0.0005  <S**2>=3.998
    130A ->135A        0.68365
    128B ->134B        0.11874
    129B ->134B       -0.67663
 
 Excited State  19:  4.023-A      3.9728 eV  312.08 nm  f=0.0014  <S**2>=3.797
    131A ->137A       -0.56423
    131A ->142A       -0.12618
    134A ->140A        0.25184
    131B ->138B        0.20952
    132B ->137B       -0.15722
    132B ->138B        0.58551
    132B ->139B       -0.15701
    132B ->142B        0.21097
    132B ->151B        0.11811
 
 Excited State  20:  3.283-A      3.9795 eV  311.56 nm  f=0.0059  <S**2>=2.445
    131A ->137A        0.19488
    131A ->138A        0.10693
    132A ->135A        0.15399
    134A ->137A        0.10826
    134A ->140A        0.77908
    134A ->142A       -0.29714
    128B ->135B       -0.11258
    131B ->134B        0.20728
    132B ->137B       -0.16251
    132B ->138B       -0.21544
 
 Excited State  21:  3.768-A      4.0423 eV  306.72 nm  f=0.0000  <S**2>=3.299
    129A ->139A       -0.13912
    131A ->135A       -0.30002
    131A ->138A       -0.40221
    132A ->135A        0.22232
    133A ->136A        0.21614
    134A ->140A        0.21915
    131B ->137B        0.25259
    132B ->134B       -0.28315
    132B ->137B        0.58338
 
 Excited State  22:  3.165-A      4.1083 eV  301.79 nm  f=0.0003  <S**2>=2.254
    131A ->135A        0.16938
    133A ->136A        0.91393
    130B ->134B       -0.29663
    132B ->137B       -0.10025
 
 Excited State  23:  3.102-A      4.1342 eV  299.90 nm  f=0.1486  <S**2>=2.155
    134A ->141A        0.90278
    125B ->133B        0.10401
    130B ->135B       -0.15286
    131B ->135B       -0.25115
    132B ->135B        0.10937
 
 Excited State  24:  3.641-A      4.1471 eV  298.96 nm  f=0.0054  <S**2>=3.063
    130A ->136A        0.14350
    132A ->135A        0.43629
    133A ->136A        0.25449
    129B ->136B       -0.12372
    130B ->134B        0.71998
    130B ->137B        0.22082
    131B ->137B       -0.16225
    132B ->139B        0.19325
 
 Excited State  25:  3.603-A      4.1655 eV  297.65 nm  f=0.0011  <S**2>=2.995
    130A ->136A       -0.11369
    132A ->135A        0.83415
    133A ->136A       -0.16591
    134A ->140A       -0.21580
    129B ->136B        0.10855
    130B ->134B       -0.38466
 
 Excited State  26:  3.037-A      4.2161 eV  294.07 nm  f=0.0121  <S**2>=2.056
    131A ->137A       -0.19247
    133A ->138A       -0.23243
    124B ->133B        0.24870
    125B ->133B        0.41198
    127B ->133B        0.77084
    132B ->138B       -0.16139
 
 Excited State  27:  3.056-A      4.2437 eV  292.16 nm  f=0.0109  <S**2>=2.085
    131A ->137A       -0.12924
    133A ->138A        0.52920
    133A ->139A        0.10858
    123B ->133B        0.14665
    124B ->133B       -0.41709
    125B ->133B       -0.42829
    127B ->133B        0.46877
    132B ->136B        0.12378
    132B ->138B       -0.11971
 
 Excited State  28:  3.579-A      4.2794 eV  289.72 nm  f=0.0090  <S**2>=2.951
    130A ->136A       -0.12639
    131A ->135A        0.78943
    131A ->138A       -0.10847
    128B ->133B       -0.11075
    129B ->133B        0.39866
    129B ->136B        0.13390
    130B ->134B        0.19921
    132B ->137B        0.26437
 
 Excited State  29:  3.045-A      4.2945 eV  288.71 nm  f=0.0060  <S**2>=2.068
    133A ->138A        0.78447
    123B ->133B       -0.13085
    124B ->133B        0.35514
    125B ->133B        0.41504
 
 Excited State  30:  3.612-A      4.3167 eV  287.22 nm  f=0.0002  <S**2>=3.011
    124B ->133B        0.11429
    125B ->133B        0.13230
    129B ->134B       -0.12415
    131B ->136B        0.12989
    132B ->136B        0.95830
 
 Excited State  31:  3.500-A      4.3413 eV  285.60 nm  f=0.0066  <S**2>=2.812
    129A ->138A       -0.10106
    131A ->135A       -0.22989
    131A ->139A       -0.17493
    132A ->135A       -0.10706
    128B ->133B       -0.13314
    129B ->133B        0.63420
    130B ->134B       -0.20347
    131B ->139B        0.15200
    132B ->137B       -0.11036
    132B ->138B        0.16924
    132B ->139B        0.54701
 
 Excited State  32:  3.584-A      4.3632 eV  284.16 nm  f=0.0007  <S**2>=2.962
    129A ->138A        0.10662
    130A ->136A        0.16780
    131A ->135A       -0.25653
    131A ->139A        0.16845
    128B ->133B       -0.20195
    129B ->133B        0.55572
    129B ->136B       -0.18134
    130B ->134B        0.18744
    130B ->137B       -0.13959
    131B ->139B       -0.19798
    132B ->138B       -0.19196
    132B ->139B       -0.53353
 
 Excited State  33:  3.406-A      4.4107 eV  281.10 nm  f=0.0031  <S**2>=2.650
    129A ->139A        0.20260
    132A ->139A       -0.16110
    134A ->142A       -0.15003
    123B ->133B        0.42228
    124B ->133B        0.20341
    126B ->133B        0.50942
    128B ->135B        0.24940
    129B ->133B        0.10775
    130B ->137B        0.20181
    130B ->138B       -0.13281
    130B ->139B       -0.28337
    131B ->137B       -0.10473
    131B ->139B        0.17958
    132B ->137B        0.26185
    132B ->139B       -0.10270
 
 Excited State  34:  3.647-A      4.4157 eV  280.78 nm  f=0.0008  <S**2>=3.075
    131B ->136B        0.96718
    132B ->136B       -0.14900
 
 Excited State  35:  3.076-A      4.4601 eV  277.98 nm  f=0.0021  <S**2>=2.115
    134A ->137A       -0.11286
    134A ->140A        0.34027
    134A ->142A        0.84060
    134A ->145A        0.23073
    134A ->149A        0.11403
    123B ->133B        0.13664
    126B ->133B        0.17256
 
 Excited State  36:  3.067-A      4.4859 eV  276.39 nm  f=0.0033  <S**2>=2.102
    131A ->137A        0.58036
    131A ->142A        0.10179
    133A ->139A        0.47177
    134A ->144A       -0.23660
    127B ->133B        0.21072
    131B ->138B        0.13590
    132B ->138B        0.40654
    132B ->139B       -0.13738
    132B ->142B        0.11225
 
 Excited State  37:  3.659-A      4.4952 eV  275.81 nm  f=0.0007  <S**2>=3.098
    129A ->137A       -0.21575
    129A ->139A       -0.25658
    132A ->137A        0.12145
    132A ->139A        0.10890
    133A ->139A       -0.10903
    134A ->142A       -0.19868
    134A ->144A        0.11306
    123B ->133B        0.30955
    124B ->133B        0.14008
    126B ->133B        0.37888
    128B ->135B        0.15435
    130B ->137B       -0.29940
    130B ->138B        0.29634
    130B ->139B        0.33853
    131B ->137B        0.14954
    131B ->138B       -0.17392
    131B ->139B       -0.14086
    132B ->137B       -0.20749
    132B ->139B        0.14263
 
 Excited State  38:  3.051-A      4.5184 eV  274.40 nm  f=0.0076  <S**2>=2.077
    131A ->137A       -0.25756
    133A ->139A        0.83687
    127B ->133B       -0.25981
    131B ->138B       -0.13883
    132B ->138B       -0.20941
 
 Excited State  39:  3.292-A      4.5427 eV  272.93 nm  f=0.0259  <S**2>=2.460
    129A ->137A       -0.19396
    131A ->137A        0.20971
    132A ->137A        0.11964
    134A ->143A        0.16011
    134A ->144A        0.79813
    134A ->146A        0.12762
    130B ->138B        0.13658
    130B ->139B       -0.16159
    132B ->138B        0.21609
    132B ->139B       -0.10963
 
 Excited State  40:  3.928-A      4.5634 eV  271.69 nm  f=0.0036  <S**2>=3.608
    129A ->137A        0.49393
    129A ->138A        0.10785
    129A ->139A       -0.11534
    129A ->142A        0.10927
    132A ->137A       -0.23556
    134A ->143A        0.10388
    134A ->144A        0.38538
    130B ->138B       -0.44560
    130B ->139B        0.28550
    130B ->142B       -0.16623
    131B ->138B        0.21792
    131B ->139B       -0.13428
 
 Excited State  41:  3.656-A      4.6766 eV  265.12 nm  f=0.0007  <S**2>=3.092
    129A ->135A       -0.19851
    129A ->139A       -0.18380
    131A ->139A       -0.13257
    132A ->139A        0.12303
    130B ->134B       -0.25050
    130B ->137B        0.48815
    130B ->138B        0.11608
    130B ->139B        0.36391
    131B ->137B       -0.43422
    131B ->138B       -0.10915
    131B ->139B       -0.33481
    132B ->137B        0.15751
    132B ->139B       -0.23747
 
 Excited State  42:  3.669-A      4.7324 eV  261.99 nm  f=0.0020  <S**2>=3.116
    121A ->135A        0.11248
    123A ->135A        0.24293
    129A ->135A        0.77555
    129A ->138A        0.10900
    130A ->136A       -0.16693
    131A ->135A       -0.10934
    134A ->145A        0.13855
    134A ->147A       -0.10443
    120B ->134B       -0.14120
    122B ->134B       -0.25116
    128B ->135B        0.20107
    129B ->136B        0.18396
    131B ->137B       -0.13648
 
 Excited State  43:  3.561-A      4.7527 eV  260.87 nm  f=0.0003  <S**2>=2.920
    132A ->136A        0.96964
    134A ->144A        0.11762
 
 Excited State  44:  3.227-A      4.7693 eV  259.96 nm  f=0.0024  <S**2>=2.354
    123A ->135A       -0.10533
    129A ->135A       -0.17197
    132A ->138A        0.17239
    134A ->142A       -0.14068
    134A ->145A        0.55421
    134A ->147A       -0.43107
    134A ->151A       -0.17449
    122B ->134B        0.11593
    123B ->133B       -0.10682
    126B ->133B       -0.15566
    128B ->135B        0.40875
    129B ->135B        0.15926
    130B ->137B       -0.16172
 
 Excited State  45:  3.363-A      4.8331 eV  256.53 nm  f=0.0566  <S**2>=2.578
    130A ->135A       -0.42497
    131A ->136A        0.44843
    134A ->143A       -0.22640
    129B ->134B       -0.42401
    130B ->136B        0.56719
 
 Excited State  46:  3.083-A      4.8425 eV  256.03 nm  f=0.0124  <S**2>=2.127
    131A ->136A        0.10620
    134A ->141A       -0.11476
    134A ->143A        0.93257
    134A ->144A       -0.21191
    130B ->136B        0.15209
 
 Excited State  47:  3.630-A      4.8713 eV  254.52 nm  f=0.0054  <S**2>=3.045
    130A ->135A        0.17866
    131A ->136A       -0.64250
    130B ->136B        0.71396
 
 Excited State  48:  3.966-A      4.8996 eV  253.05 nm  f=0.0018  <S**2>=3.683
    121A ->135A       -0.22611
    123A ->135A       -0.46635
    129A ->135A        0.48354
    129A ->138A        0.14158
    130A ->136A        0.20659
    131A ->135A        0.15735
    132A ->138A       -0.10542
    120B ->134B        0.22796
    122B ->134B        0.45962
    129B ->136B       -0.18348
    131B ->137B       -0.11773
 
 Excited State  49:  3.575-A      4.9793 eV  249.00 nm  f=0.0540  <S**2>=2.946
    130A ->135A        0.18592
    131A ->136A        0.30538
    134A ->145A       -0.10587
    121B ->134B       -0.15050
    128B ->134B        0.77706
    129B ->134B        0.33947
    130B ->136B        0.24431
 
 Excited State  50:  3.132-A      4.9896 eV  248.49 nm  f=0.0191  <S**2>=2.202
    131A ->138A        0.27974
    132A ->138A       -0.12921
    132A ->139A        0.15416
    134A ->140A       -0.15364
    134A ->142A       -0.16542
    134A ->145A        0.54066
    134A ->149A        0.15122
    126B ->133B        0.16230
    128B ->134B        0.10323
    128B ->135B       -0.50840
    129B ->135B       -0.26295
    130B ->137B       -0.10239
    132B ->137B        0.14347
 SavETr:  write IOETrn=   770 NScale= 10 NData=  16 NLR=1 NState=   50 LETran=     910.

 **********************************************************************

            Population analysis using the SCF Density.

 **********************************************************************

 Orbital symmetries:
 Alpha Orbitals:
       Occupied  (A) (A) (A) (A) (A) (A) (A) (A) (A) (A) (A) (A)
                 (A) (A) (A) (A) (A) (A) (A) (A) (A) (A) (A) (A)
                 (A) (A) (A) (A) (A) (A) (A) (A) (A) (A) (A) (A)
                 (A) (A) (A) (A) (A) (A) (A) (A) (A) (A) (A) (A)
                 (A) (A) (A) (A) (A) (A) (A) (A) (A) (A) (A) (A)
                 (A) (A) (A) (A) (A) (A) (A) (A) (A) (A) (A) (A)
                 (A) (A) (A) (A) (A) (A) (A) (A) (A) (A) (A) (A)
                 (A) (A) (A) (A) (A) (A) (A) (A) (A) (A) (A) (A)
                 (A) (A) (A) (A) (A) (A) (A) (A) (A) (A) (A) (A)
                 (A) (A) (A) (A) (A) (A) (A) (A) (A) (A) (A) (A)
                 (A) (A) (A) (A) (A) (A) (A) (A) (A) (A) (A) (A)
                 (A) (A)
       Virtual   (A) (A) (A) (A) (A) (A) (A) (A) (A) (A) (A) (A)
                 (A) (A) (A) (A) (A) (A) (A) (A) (A) (A) (A) (A)
                 (A) (A) (A) (A) (A) (A) (A) (A) (A) (A) (A) (A)
                 (A) (A) (A) (A) (A) (A) (A) (A) (A) (A) (A) (A)
                 (A) (A) (A) (A) (A) (A) (A) (A) (A) (A) (A) (A)
                 (A) (A) (A) (A) (A) (A) (A) (A) (A) (A) (A) (A)
                 (A) (A) (A) (A) (A) (A) (A) (A) (A) (A) (A) (A)
                 (A) (A) (A) (A) (A) (A) (A) (A) (A) (A) (A) (A)
                 (A) (A) (A) (A) (A) (A) (A) (A) (A) (A) (A) (A)
                 (A) (A) (A) (A) (A) (A) (A) (A) (A) (A) (A) (A)
                 (A) (A) (A) (A) (A) (A) (A) (A) (A) (A) (A) (A)
                 (A) (A) (A) (A) (A) (A) (A) (A) (A) (A) (A) (A)
                 (A) (A) (A) (A) (A) (A) (A) (A) (A) (A) (A) (A)
                 (A) (A) (A) (A) (A) (A) (A) (A) (A) (A) (A) (A)
                 (A) (A) (A) (A) (A) (A) (A) (A) (A) (A) (A) (A)
                 (A) (A) (A) (A) (A) (A) (A) (A) (A) (A) (A) (A)
                 (A) (A) (A) (A) (A) (A) (A) (A) (A) (A) (A) (A)
                 (A) (A) (A) (A) (A) (A) (A) (A) (A) (A) (A) (A)
                 (A) (A) (A) (A) (A) (A) (A) (A) (A) (A) (A) (A)
                 (A) (A) (A) (A) (A) (A) (A) (A) (A) (A) (A) (A)
                 (A) (A) (A) (A) (A) (A) (A) (A) (A) (A) (A) (A)
                 (A) (A) (A) (A) (A) (A) (A) (A) (A) (A) (A) (A)
                 (A) (A) (A) (A) (A) (A) (A) (A) (A) (A) (A) (A)
                 (A) (A) (A) (A) (A) (A) (A) (A) (A) (A) (A) (A)
                 (A) (A) (A) (A) (A) (A) (A) (A) (A) (A) (A) (A)
                 (A) (A) (A) (A) (A) (A) (A) (A) (A) (A) (A) (A)
                 (A) (A) (A) (A) (A) (A) (A) (A) (A) (A) (A) (A)
                 (A) (A) (A) (A) (A) (A) (A) (A) (A) (A) (A) (A)
                 (A) (A) (A) (A) (A) (A) (A) (A) (A) (A) (A) (A)
                 (A) (A) (A) (A) (A) (A) (A) (A) (A) (A) (A) (A)
                 (A) (A) (A) (A) (A) (A) (A) (A) (A) (A) (A) (A)
                 (A) (A) (A) (A) (A) (A) (A) (A) (A) (A) (A) (A)
                 (A) (A) (A) (A) (A) (A) (A) (A) (A) (A) (A) (A)
                 (A) (A) (A) (A) (A) (A) (A) (A) (A) (A) (A) (A)
                 (A) (A) (A) (A) (A) (A) (A) (A) (A) (A) (A) (A)
                 (A) (A) (A) (A) (A) (A) (A) (A) (A) (A) (A) (A)
                 (A) (A) (A) (A) (A) (A) (A) (A) (A) (A) (A) (A)
                 (A) (A) (A) (A) (A) (A) (A) (A) (A) (A) (A) (A)
                 (A) (A) (A) (A) (A) (A) (A) (A) (A) (A) (A) (A)
                 (A) (A) (A) (A) (A) (A) (A) (A) (A) (A) (A) (A)
                 (A) (A) (A) (A) (A) (A) (A) (A) (A) (A) (A) (A)
                 (A) (A) (A) (A) (A) (A) (A) (A) (A) (A) (A) (A)
                 (A) (A) (A) (A) (A) (A) (A) (A) (A) (A) (A) (A)
                 (A) (A) (A) (A) (A) (A) (A) (A) (A) (A) (A) (A)
                 (A) (A) (A) (A) (A) (A) (A) (A) (A) (A) (A) (A)
                 (A) (A) (A) (A) (A) (A) (A) (A) (A) (A)
 Beta  Orbitals:
       Occupied  (A) (A) (A) (A) (A) (A) (A) (A) (A) (A) (A) (A)
                 (A) (A) (A) (A) (A) (A) (A) (A) (A) (A) (A) (A)
                 (A) (A) (A) (A) (A) (A) (A) (A) (A) (A) (A) (A)
                 (A) (A) (A) (A) (A) (A) (A) (A) (A) (A) (A) (A)
                 (A) (A) (A) (A) (A) (A) (A) (A) (A) (A) (A) (A)
                 (A) (A) (A) (A) (A) (A) (A) (A) (A) (A) (A) (A)
                 (A) (A) (A) (A) (A) (A) (A) (A) (A) (A) (A) (A)
                 (A) (A) (A) (A) (A) (A) (A) (A) (A) (A) (A) (A)
                 (A) (A) (A) (A) (A) (A) (A) (A) (A) (A) (A) (A)
                 (A) (A) (A) (A) (A) (A) (A) (A) (A) (A) (A) (A)
                 (A) (A) (A) (A) (A) (A) (A) (A) (A) (A) (A) (A)
       Virtual   (A) (A) (A) (A) (A) (A) (A) (A) (A) (A) (A) (A)
                 (A) (A) (A) (A) (A) (A) (A) (A) (A) (A) (A) (A)
                 (A) (A) (A) (A) (A) (A) (A) (A) (A) (A) (A) (A)
                 (A) (A) (A) (A) (A) (A) (A) (A) (A) (A) (A) (A)
                 (A) (A) (A) (A) (A) (A) (A) (A) (A) (A) (A) (A)
                 (A) (A) (A) (A) (A) (A) (A) (A) (A) (A) (A) (A)
                 (A) (A) (A) (A) (A) (A) (A) (A) (A) (A) (A) (A)
                 (A) (A) (A) (A) (A) (A) (A) (A) (A) (A) (A) (A)
                 (A) (A) (A) (A) (A) (A) (A) (A) (A) (A) (A) (A)
                 (A) (A) (A) (A) (A) (A) (A) (A) (A) (A) (A) (A)
                 (A) (A) (A) (A) (A) (A) (A) (A) (A) (A) (A) (A)
                 (A) (A) (A) (A) (A) (A) (A) (A) (A) (A) (A) (A)
                 (A) (A) (A) (A) (A) (A) (A) (A) (A) (A) (A) (A)
                 (A) (A) (A) (A) (A) (A) (A) (A) (A) (A) (A) (A)
                 (A) (A) (A) (A) (A) (A) (A) (A) (A) (A) (A) (A)
                 (A) (A) (A) (A) (A) (A) (A) (A) (A) (A) (A) (A)
                 (A) (A) (A) (A) (A) (A) (A) (A) (A) (A) (A) (A)
                 (A) (A) (A) (A) (A) (A) (A) (A) (A) (A) (A) (A)
                 (A) (A) (A) (A) (A) (A) (A) (A) (A) (A) (A) (A)
                 (A) (A) (A) (A) (A) (A) (A) (A) (A) (A) (A) (A)
                 (A) (A) (A) (A) (A) (A) (A) (A) (A) (A) (A) (A)
                 (A) (A) (A) (A) (A) (A) (A) (A) (A) (A) (A) (A)
                 (A) (A) (A) (A) (A) (A) (A) (A) (A) (A) (A) (A)
                 (A) (A) (A) (A) (A) (A) (A) (A) (A) (A) (A) (A)
                 (A) (A) (A) (A) (A) (A) (A) (A) (A) (A) (A) (A)
                 (A) (A) (A) (A) (A) (A) (A) (A) (A) (A) (A) (A)
                 (A) (A) (A) (A) (A) (A) (A) (A) (A) (A) (A) (A)
                 (A) (A) (A) (A) (A) (A) (A) (A) (A) (A) (A) (A)
                 (A) (A) (A) (A) (A) (A) (A) (A) (A) (A) (A) (A)
                 (A) (A) (A) (A) (A) (A) (A) (A) (A) (A) (A) (A)
                 (A) (A) (A) (A) (A) (A) (A) (A) (A) (A) (A) (A)
                 (A) (A) (A) (A) (A) (A) (A) (A) (A) (A) (A) (A)
                 (A) (A) (A) (A) (A) (A) (A) (A) (A) (A) (A) (A)
                 (A) (A) (A) (A) (A) (A) (A) (A) (A) (A) (A) (A)
                 (A) (A) (A) (A) (A) (A) (A) (A) (A) (A) (A) (A)
                 (A) (A) (A) (A) (A) (A) (A) (A) (A) (A) (A) (A)
                 (A) (A) (A) (A) (A) (A) (A) (A) (A) (A) (A) (A)
                 (A) (A) (A) (A) (A) (A) (A) (A) (A) (A) (A) (A)
                 (A) (A) (A) (A) (A) (A) (A) (A) (A) (A) (A) (A)
                 (A) (A) (A) (A) (A) (A) (A) (A) (A) (A) (A) (A)
                 (A) (A) (A) (A) (A) (A) (A) (A) (A) (A) (A) (A)
                 (A) (A) (A) (A) (A) (A) (A) (A) (A) (A) (A) (A)
                 (A) (A) (A) (A) (A) (A) (A) (A) (A) (A) (A) (A)
                 (A) (A) (A) (A) (A) (A) (A) (A) (A) (A) (A) (A)
                 (A) (A) (A) (A) (A) (A) (A) (A) (A) (A) (A) (A)
                 (A) (A) (A) (A) (A) (A) (A) (A) (A) (A) (A) (A)
 The electronic state is 3-A.
 Alpha  occ. eigenvalues --  -77.05304 -77.05122 -19.18124 -19.08918 -19.08850
 Alpha  occ. eigenvalues --  -14.35588 -10.26698 -10.24357 -10.24345 -10.20766
 Alpha  occ. eigenvalues --  -10.19917 -10.19848 -10.19793 -10.19733 -10.19530
 Alpha  occ. eigenvalues --  -10.19525 -10.18855 -10.18805 -10.17220 -10.17199
 Alpha  occ. eigenvalues --  -10.17078 -10.17059 -10.17012 -10.16991 -10.16969
 Alpha  occ. eigenvalues --  -10.16963 -10.16939 -10.16927 -10.16901 -10.16892
 Alpha  occ. eigenvalues --   -6.54697  -6.54524  -4.71307  -4.71246  -4.71136
 Alpha  occ. eigenvalues --   -4.71075  -4.70946  -4.70761  -3.04591  -1.89270
 Alpha  occ. eigenvalues --   -1.89033  -1.87551  -1.08284  -0.95359  -0.90736
 Alpha  occ. eigenvalues --   -0.89895  -0.81689  -0.81133  -0.80138  -0.79526
 Alpha  occ. eigenvalues --   -0.79081  -0.79026  -0.73216  -0.69358  -0.67571
 Alpha  occ. eigenvalues --   -0.67540  -0.67241  -0.67212  -0.66733  -0.66707
 Alpha  occ. eigenvalues --   -0.66513  -0.66502  -0.63292  -0.62527  -0.59128
 Alpha  occ. eigenvalues --   -0.59049  -0.54074  -0.53719  -0.53682  -0.51148
 Alpha  occ. eigenvalues --   -0.51061  -0.49714  -0.49387  -0.46390  -0.46322
 Alpha  occ. eigenvalues --   -0.45316  -0.44845  -0.44587  -0.44263  -0.44020
 Alpha  occ. eigenvalues --   -0.43935  -0.43854  -0.43465  -0.43181  -0.43086
 Alpha  occ. eigenvalues --   -0.42704  -0.42677  -0.42251  -0.42050  -0.41908
 Alpha  occ. eigenvalues --   -0.41758  -0.41107  -0.40895  -0.40603  -0.39987
 Alpha  occ. eigenvalues --   -0.38884  -0.38540  -0.38422  -0.37894  -0.37333
 Alpha  occ. eigenvalues --   -0.37216  -0.37135  -0.37010  -0.36989  -0.36544
 Alpha  occ. eigenvalues --   -0.35822  -0.35741  -0.35622  -0.35511  -0.34431
 Alpha  occ. eigenvalues --   -0.34003  -0.33667  -0.33509  -0.33396  -0.32759
 Alpha  occ. eigenvalues --   -0.32624  -0.32429  -0.32065  -0.32054  -0.31437
 Alpha  occ. eigenvalues --   -0.30947  -0.29963  -0.29675  -0.29029  -0.28725
 Alpha  occ. eigenvalues --   -0.28297  -0.28189  -0.28004  -0.25056  -0.25002
 Alpha  occ. eigenvalues --   -0.23064  -0.22334  -0.20046  -0.13640
 Alpha virt. eigenvalues --   -0.04429  -0.02277   0.00083   0.00399   0.01267
 Alpha virt. eigenvalues --    0.04816   0.05131   0.05543   0.06351   0.06956
 Alpha virt. eigenvalues --    0.07758   0.07861   0.08029   0.08457   0.08579
 Alpha virt. eigenvalues --    0.08707   0.09521   0.09977   0.10399   0.10796
 Alpha virt. eigenvalues --    0.11065   0.11373   0.11464   0.11675   0.11957
 Alpha virt. eigenvalues --    0.12368   0.12818   0.13079   0.13650   0.13790
 Alpha virt. eigenvalues --    0.13818   0.14300   0.14337   0.15078   0.15271
 Alpha virt. eigenvalues --    0.15362   0.15937   0.16034   0.16403   0.16603
 Alpha virt. eigenvalues --    0.17052   0.17236   0.17603   0.17701   0.17789
 Alpha virt. eigenvalues --    0.18143   0.18185   0.18442   0.19039   0.19819
 Alpha virt. eigenvalues --    0.20000   0.20025   0.20196   0.20405   0.21050
 Alpha virt. eigenvalues --    0.21321   0.21528   0.21716   0.21869   0.22341
 Alpha virt. eigenvalues --    0.22644   0.22760   0.23291   0.23442   0.23787
 Alpha virt. eigenvalues --    0.23951   0.24256   0.24799   0.25151   0.25557
 Alpha virt. eigenvalues --    0.27610   0.27784   0.29005   0.29175   0.29592
 Alpha virt. eigenvalues --    0.30858   0.30922   0.31903   0.32701   0.34191
 Alpha virt. eigenvalues --    0.35578   0.37105   0.37652   0.39076   0.39207
 Alpha virt. eigenvalues --    0.39847   0.40664   0.40778   0.40827   0.41237
 Alpha virt. eigenvalues --    0.41532   0.42652   0.42874   0.43143   0.43587
 Alpha virt. eigenvalues --    0.43937   0.44724   0.45231   0.45474   0.45919
 Alpha virt. eigenvalues --    0.46573   0.46875   0.48144   0.48954   0.50052
 Alpha virt. eigenvalues --    0.50503   0.51177   0.51268   0.51608   0.52643
 Alpha virt. eigenvalues --    0.52883   0.52967   0.53342   0.54094   0.54823
 Alpha virt. eigenvalues --    0.55338   0.55905   0.55936   0.57439   0.58194
 Alpha virt. eigenvalues --    0.58284   0.58506   0.59360   0.59801   0.59830
 Alpha virt. eigenvalues --    0.59936   0.59992   0.60559   0.60777   0.61174
 Alpha virt. eigenvalues --    0.61635   0.62652   0.62833   0.63053   0.63245
 Alpha virt. eigenvalues --    0.63802   0.63926   0.64483   0.64602   0.64666
 Alpha virt. eigenvalues --    0.64839   0.65070   0.65144   0.65617   0.65806
 Alpha virt. eigenvalues --    0.66094   0.66298   0.66438   0.67240   0.67389
 Alpha virt. eigenvalues --    0.67491   0.67553   0.67635   0.68326   0.68452
 Alpha virt. eigenvalues --    0.68595   0.68666   0.69280   0.69521   0.69586
 Alpha virt. eigenvalues --    0.69678   0.70458   0.70572   0.70652   0.71143
 Alpha virt. eigenvalues --    0.71359   0.71460   0.71631   0.72054   0.72145
 Alpha virt. eigenvalues --    0.72404   0.73011   0.73079   0.73427   0.73856
 Alpha virt. eigenvalues --    0.73922   0.74250   0.74347   0.74526   0.74818
 Alpha virt. eigenvalues --    0.75142   0.75416   0.75933   0.75998   0.76951
 Alpha virt. eigenvalues --    0.77085   0.77204   0.77714   0.78162   0.78448
 Alpha virt. eigenvalues --    0.79006   0.79628   0.79868   0.80333   0.80653
 Alpha virt. eigenvalues --    0.80952   0.81028   0.81142   0.81770   0.81873
 Alpha virt. eigenvalues --    0.82529   0.83175   0.83472   0.84040   0.84178
 Alpha virt. eigenvalues --    0.84421   0.84937   0.85387   0.85493   0.86476
 Alpha virt. eigenvalues --    0.87192   0.87654   0.88238   0.89783   0.90485
 Alpha virt. eigenvalues --    0.91063   0.91727   0.93128   0.93345   0.95017
 Alpha virt. eigenvalues --    0.95831   0.96126   0.97257   0.98351   0.98608
 Alpha virt. eigenvalues --    1.00153   1.00882   1.02295   1.02719   1.04254
 Alpha virt. eigenvalues --    1.04560   1.05749   1.05804   1.06577   1.07869
 Alpha virt. eigenvalues --    1.09061   1.09086   1.10166   1.10534   1.11525
 Alpha virt. eigenvalues --    1.11704   1.14240   1.14475   1.14535   1.15112
 Alpha virt. eigenvalues --    1.15748   1.17158   1.17497   1.18805   1.19206
 Alpha virt. eigenvalues --    1.19344   1.19704   1.20163   1.21332   1.21756
 Alpha virt. eigenvalues --    1.22205   1.22337   1.22904   1.23476   1.23720
 Alpha virt. eigenvalues --    1.24519   1.25469   1.26017   1.26575   1.26964
 Alpha virt. eigenvalues --    1.28394   1.28437   1.30254   1.30607   1.31704
 Alpha virt. eigenvalues --    1.31937   1.32720   1.33527   1.33872   1.36746
 Alpha virt. eigenvalues --    1.38482   1.40912   1.41993   1.42358   1.44114
 Alpha virt. eigenvalues --    1.48101   1.48759   1.49453   1.50137   1.50447
 Alpha virt. eigenvalues --    1.51437   1.52100   1.52196   1.53045   1.53635
 Alpha virt. eigenvalues --    1.54273   1.54550   1.55008   1.55351   1.55597
 Alpha virt. eigenvalues --    1.55665   1.56007   1.56482   1.56920   1.56971
 Alpha virt. eigenvalues --    1.57374   1.57722   1.58412   1.58650   1.59004
 Alpha virt. eigenvalues --    1.59135   1.59589   1.60214   1.60438   1.61135
 Alpha virt. eigenvalues --    1.61405   1.62139   1.62773   1.63587   1.63697
 Alpha virt. eigenvalues --    1.64734   1.66725   1.67155   1.67452   1.68055
 Alpha virt. eigenvalues --    1.68917   1.69373   1.69801   1.69930   1.70979
 Alpha virt. eigenvalues --    1.72419   1.72705   1.73716   1.74340   1.75204
 Alpha virt. eigenvalues --    1.76421   1.76882   1.77200   1.77229   1.77316
 Alpha virt. eigenvalues --    1.77935   1.78281   1.78348   1.78974   1.79184
 Alpha virt. eigenvalues --    1.80154   1.80317   1.80892   1.81057   1.81831
 Alpha virt. eigenvalues --    1.82065   1.82287   1.82893   1.83040   1.83275
 Alpha virt. eigenvalues --    1.83569   1.84182   1.84274   1.84556   1.85074
 Alpha virt. eigenvalues --    1.85495   1.85543   1.85859   1.86157   1.86546
 Alpha virt. eigenvalues --    1.87009   1.88272   1.88345   1.88384   1.89582
 Alpha virt. eigenvalues --    1.89740   1.90739   1.90924   1.91004   1.91250
 Alpha virt. eigenvalues --    1.91903   1.92126   1.92235   1.92561   1.92881
 Alpha virt. eigenvalues --    1.93405   1.93562   1.93755   1.94224   1.94529
 Alpha virt. eigenvalues --    1.94992   1.95111   1.95747   1.96154   1.96256
 Alpha virt. eigenvalues --    1.96406   1.97506   1.98208   1.98613   1.99211
 Alpha virt. eigenvalues --    1.99495   2.00298   2.00997   2.01432   2.02231
 Alpha virt. eigenvalues --    2.02327   2.02339   2.02830   2.03870   2.04342
 Alpha virt. eigenvalues --    2.04808   2.06529   2.07608   2.09238   2.09502
 Alpha virt. eigenvalues --    2.12064   2.12176   2.15873   2.16046   2.16457
 Alpha virt. eigenvalues --    2.16767   2.17037   2.17406   2.17586   2.17796
 Alpha virt. eigenvalues --    2.18074   2.18251   2.19176   2.19591   2.20012
 Alpha virt. eigenvalues --    2.20537   2.21117   2.21242   2.22344   2.22794
 Alpha virt. eigenvalues --    2.23087   2.23768   2.24329   2.24697   2.24939
 Alpha virt. eigenvalues --    2.25823   2.28135   2.28880   2.29418   2.30233
 Alpha virt. eigenvalues --    2.30953   2.36364   2.38335   2.38381   2.39123
 Alpha virt. eigenvalues --    2.39328   2.39631   2.40448   2.40645   2.40917
 Alpha virt. eigenvalues --    2.41421   2.42229   2.42777   2.42834   2.43317
 Alpha virt. eigenvalues --    2.43928   2.45008   2.46342   2.47331   2.47433
 Alpha virt. eigenvalues --    2.48193   2.48327   2.51378   2.52156   2.52409
 Alpha virt. eigenvalues --    2.55185   2.55338   2.55602   2.56039   2.56201
 Alpha virt. eigenvalues --    2.56247   2.56317   2.56897   2.57099   2.62162
 Alpha virt. eigenvalues --    2.62211   2.62352   2.62413   2.63197   2.63481
 Alpha virt. eigenvalues --    2.63505   2.63701   2.63819   2.64050   2.64069
 Alpha virt. eigenvalues --    2.64218   2.64468   2.64828   2.65268   2.66280
 Alpha virt. eigenvalues --    2.69331   2.70804   2.72564   2.72995   2.73292
 Alpha virt. eigenvalues --    2.73940   2.74196   2.77046   2.78734   2.79068
 Alpha virt. eigenvalues --    2.82547   2.85648   2.85800   2.86899   2.87141
 Alpha virt. eigenvalues --    2.87378   2.87999   2.88662   2.88861   2.89211
 Alpha virt. eigenvalues --    2.89761   2.89953   2.90913   2.91348   2.92913
 Alpha virt. eigenvalues --    2.92999   2.94111   2.94399   2.94841   2.95296
 Alpha virt. eigenvalues --    2.95411   2.96053   2.96244   2.96378   2.96654
 Alpha virt. eigenvalues --    2.96884   2.98500   2.98541   2.98684   2.99599
 Alpha virt. eigenvalues --    3.01106   3.01446   3.01942   3.01977   3.03542
 Alpha virt. eigenvalues --    3.06403   3.06863   3.06911   3.07154   3.08163
 Alpha virt. eigenvalues --    3.08363   3.09104   3.09121   3.09691   3.11693
 Alpha virt. eigenvalues --    3.12007   3.12591   3.18491   3.18753   3.34727
 Alpha virt. eigenvalues --    3.60185   3.71366   3.79569   3.80915  45.34128
  Beta  occ. eigenvalues --  -77.05209 -77.05033 -19.18232 -19.08606 -19.08540
  Beta  occ. eigenvalues --  -14.35571 -10.26825 -10.24359 -10.24346 -10.20769
  Beta  occ. eigenvalues --  -10.19896 -10.19828 -10.19748 -10.19688 -10.19528
  Beta  occ. eigenvalues --  -10.19523 -10.18869 -10.18819 -10.17220 -10.17198
  Beta  occ. eigenvalues --  -10.17066 -10.17048 -10.17001 -10.16980 -10.16967
  Beta  occ. eigenvalues --  -10.16961 -10.16940 -10.16928 -10.16903 -10.16894
  Beta  occ. eigenvalues --   -6.54583  -6.54416  -4.71223  -4.71171  -4.71057
  Beta  occ. eigenvalues --   -4.71005  -4.70729  -4.70557  -2.98841  -1.84175
  Beta  occ. eigenvalues --   -1.82729  -1.79961  -1.08454  -0.95338  -0.90028
  Beta  occ. eigenvalues --   -0.89174  -0.81620  -0.81045  -0.80132  -0.79510
  Beta  occ. eigenvalues --   -0.79037  -0.78981  -0.73206  -0.69326  -0.67539
  Beta  occ. eigenvalues --   -0.67509  -0.67235  -0.67205  -0.66715  -0.66689
  Beta  occ. eigenvalues --   -0.66504  -0.66495  -0.63162  -0.62423  -0.58990
  Beta  occ. eigenvalues --   -0.58910  -0.54214  -0.53653  -0.53617  -0.51115
  Beta  occ. eigenvalues --   -0.51020  -0.49624  -0.49328  -0.46347  -0.46278
  Beta  occ. eigenvalues --   -0.45130  -0.44646  -0.44365  -0.44201  -0.43998
  Beta  occ. eigenvalues --   -0.43836  -0.43796  -0.43493  -0.43145  -0.42887
  Beta  occ. eigenvalues --   -0.42766  -0.42743  -0.42200  -0.42038  -0.41873
  Beta  occ. eigenvalues --   -0.41649  -0.41100  -0.40820  -0.40445  -0.39965
  Beta  occ. eigenvalues --   -0.38854  -0.38485  -0.38384  -0.37865  -0.37319
  Beta  occ. eigenvalues --   -0.37188  -0.37125  -0.36989  -0.36964  -0.36535
  Beta  occ. eigenvalues --   -0.35800  -0.35731  -0.35604  -0.35503  -0.34257
  Beta  occ. eigenvalues --   -0.33946  -0.33467  -0.33428  -0.33031  -0.32588
  Beta  occ. eigenvalues --   -0.32346  -0.32030  -0.32013  -0.31841  -0.30849
  Beta  occ. eigenvalues --   -0.29943  -0.29589  -0.28383  -0.28297  -0.27866
  Beta  occ. eigenvalues --   -0.27826  -0.26654  -0.25668  -0.24945  -0.22847
  Beta  occ. eigenvalues --   -0.21045  -0.20747
  Beta virt. eigenvalues --   -0.06411  -0.04436  -0.03345  -0.02206   0.00635
  Beta virt. eigenvalues --    0.01431   0.01682   0.05172   0.05458   0.06084
  Beta virt. eigenvalues --    0.06414   0.07175   0.07912   0.08021   0.08439
  Beta virt. eigenvalues --    0.08525   0.08711   0.08798   0.09917   0.10030
  Beta virt. eigenvalues --    0.10441   0.10857   0.11093   0.11462   0.11519
  Beta virt. eigenvalues --    0.11760   0.12004   0.12425   0.12856   0.13107
  Beta virt. eigenvalues --    0.13728   0.13828   0.13907   0.14399   0.14471
  Beta virt. eigenvalues --    0.15185   0.15299   0.15399   0.15963   0.16096
  Beta virt. eigenvalues --    0.16441   0.16663   0.17101   0.17323   0.17634
  Beta virt. eigenvalues --    0.17729   0.17874   0.18220   0.18257   0.18501
  Beta virt. eigenvalues --    0.19064   0.19945   0.20078   0.20086   0.20262
  Beta virt. eigenvalues --    0.20435   0.21132   0.21360   0.21597   0.21746
  Beta virt. eigenvalues --    0.21905   0.22382   0.22713   0.22808   0.23496
  Beta virt. eigenvalues --    0.23558   0.23989   0.24035   0.24414   0.24885
  Beta virt. eigenvalues --    0.25327   0.25617   0.27701   0.27805   0.29123
  Beta virt. eigenvalues --    0.29368   0.30097   0.30917   0.31098   0.31965
  Beta virt. eigenvalues --    0.32974   0.34244   0.35909   0.37206   0.37739
  Beta virt. eigenvalues --    0.39168   0.39260   0.39973   0.40724   0.40840
  Beta virt. eigenvalues --    0.41006   0.41277   0.41730   0.42740   0.42975
  Beta virt. eigenvalues --    0.43211   0.43665   0.44222   0.44948   0.45337
  Beta virt. eigenvalues --    0.45540   0.46103   0.46750   0.47166   0.48285
  Beta virt. eigenvalues --    0.49077   0.50285   0.50612   0.51433   0.51496
  Beta virt. eigenvalues --    0.51977   0.52876   0.53052   0.53116   0.53544
  Beta virt. eigenvalues --    0.54216   0.54930   0.55483   0.56119   0.56232
  Beta virt. eigenvalues --    0.57495   0.58274   0.58419   0.58580   0.59359
  Beta virt. eigenvalues --    0.59860   0.59908   0.60033   0.60155   0.60628
  Beta virt. eigenvalues --    0.60851   0.61438   0.61757   0.62761   0.62877
  Beta virt. eigenvalues --    0.63185   0.63320   0.63897   0.64037   0.64582
  Beta virt. eigenvalues --    0.64682   0.64733   0.64874   0.65129   0.65177
  Beta virt. eigenvalues --    0.65658   0.65867   0.66172   0.66339   0.66565
  Beta virt. eigenvalues --    0.67276   0.67444   0.67535   0.67612   0.67656
  Beta virt. eigenvalues --    0.68370   0.68490   0.68634   0.68707   0.69355
  Beta virt. eigenvalues --    0.69549   0.69630   0.69728   0.70540   0.70680
  Beta virt. eigenvalues --    0.70735   0.71179   0.71417   0.71542   0.71664
  Beta virt. eigenvalues --    0.72081   0.72181   0.72450   0.73140   0.73174
  Beta virt. eigenvalues --    0.73484   0.73889   0.73978   0.74345   0.74420
  Beta virt. eigenvalues --    0.74700   0.74904   0.75210   0.75457   0.76093
  Beta virt. eigenvalues --    0.76157   0.76985   0.77161   0.77266   0.77778
  Beta virt. eigenvalues --    0.78275   0.78601   0.79115   0.79824   0.79911
  Beta virt. eigenvalues --    0.80372   0.80780   0.81084   0.81140   0.81288
  Beta virt. eigenvalues --    0.81888   0.81950   0.82670   0.83348   0.83567
  Beta virt. eigenvalues --    0.84117   0.84220   0.84548   0.85242   0.85525
  Beta virt. eigenvalues --    0.85639   0.86626   0.87305   0.87853   0.88361
  Beta virt. eigenvalues --    0.89945   0.90552   0.91117   0.91902   0.93238
  Beta virt. eigenvalues --    0.93488   0.95112   0.95992   0.96220   0.97483
  Beta virt. eigenvalues --    0.98555   0.98767   1.00369   1.01036   1.02478
  Beta virt. eigenvalues --    1.02888   1.04404   1.04648   1.05777   1.05982
  Beta virt. eigenvalues --    1.06816   1.08106   1.09057   1.09182   1.10254
  Beta virt. eigenvalues --    1.10751   1.11596   1.11787   1.14312   1.14671
  Beta virt. eigenvalues --    1.14704   1.15178   1.15957   1.17268   1.17869
  Beta virt. eigenvalues --    1.18965   1.19291   1.19480   1.19912   1.20202
  Beta virt. eigenvalues --    1.21432   1.22047   1.22368   1.22610   1.23091
  Beta virt. eigenvalues --    1.23567   1.23792   1.24641   1.25543   1.26188
  Beta virt. eigenvalues --    1.26650   1.27011   1.28516   1.28649   1.30421
  Beta virt. eigenvalues --    1.30659   1.31816   1.32058   1.33156   1.33628
  Beta virt. eigenvalues --    1.33952   1.36927   1.38555   1.40983   1.42105
  Beta virt. eigenvalues --    1.42497   1.44289   1.48279   1.48927   1.49537
  Beta virt. eigenvalues --    1.50187   1.50472   1.51499   1.52225   1.52246
  Beta virt. eigenvalues --    1.53105   1.53921   1.54319   1.54654   1.55045
  Beta virt. eigenvalues --    1.55377   1.55659   1.55732   1.56030   1.56598
  Beta virt. eigenvalues --    1.56983   1.57081   1.57439   1.57809   1.58479
  Beta virt. eigenvalues --    1.58697   1.59101   1.59226   1.59759   1.60400
  Beta virt. eigenvalues --    1.60493   1.61301   1.61453   1.62564   1.62922
  Beta virt. eigenvalues --    1.63705   1.64050   1.65407   1.66728   1.67279
  Beta virt. eigenvalues --    1.67514   1.68813   1.68993   1.69431   1.70037
  Beta virt. eigenvalues --    1.71023   1.71176   1.72435   1.73038   1.73740
  Beta virt. eigenvalues --    1.74481   1.75413   1.76478   1.76963   1.77233
  Beta virt. eigenvalues --    1.77271   1.77366   1.78027   1.78339   1.78440
  Beta virt. eigenvalues --    1.79079   1.79206   1.80280   1.80406   1.80956
  Beta virt. eigenvalues --    1.81184   1.81870   1.82103   1.82342   1.82950
  Beta virt. eigenvalues --    1.83088   1.83320   1.83614   1.84329   1.84348
  Beta virt. eigenvalues --    1.84599   1.85091   1.85547   1.85742   1.85985
  Beta virt. eigenvalues --    1.86183   1.86990   1.87544   1.88421   1.88770
  Beta virt. eigenvalues --    1.89614   1.89873   1.90825   1.90967   1.91179
  Beta virt. eigenvalues --    1.91287   1.92006   1.92265   1.92388   1.92505
  Beta virt. eigenvalues --    1.92642   1.93126   1.93659   1.93781   1.94460
  Beta virt. eigenvalues --    1.94571   1.94975   1.95122   1.96175   1.96241
  Beta virt. eigenvalues --    1.96297   1.96828   1.98072   1.98185   1.98931
  Beta virt. eigenvalues --    1.99106   1.99351   1.99764   2.00487   2.01438
  Beta virt. eigenvalues --    2.01507   2.02323   2.02406   2.02858   2.03888
  Beta virt. eigenvalues --    2.04291   2.04362   2.06713   2.08486   2.09002
  Beta virt. eigenvalues --    2.09596   2.09872   2.12527   2.13356   2.15946
  Beta virt. eigenvalues --    2.16083   2.16650   2.16808   2.17067   2.17451
  Beta virt. eigenvalues --    2.17664   2.17847   2.18113   2.18464   2.19205
  Beta virt. eigenvalues --    2.19647   2.20256   2.20586   2.21159   2.21270
  Beta virt. eigenvalues --    2.22466   2.23094   2.23136   2.23830   2.24378
  Beta virt. eigenvalues --    2.24765   2.24978   2.25933   2.28189   2.28919
  Beta virt. eigenvalues --    2.29613   2.30293   2.31229   2.36380   2.38354
  Beta virt. eigenvalues --    2.38399   2.39145   2.39376   2.39640   2.40468
  Beta virt. eigenvalues --    2.40664   2.40940   2.41434   2.42247   2.42841
  Beta virt. eigenvalues --    2.42850   2.43329   2.43944   2.45059   2.46400
  Beta virt. eigenvalues --    2.47415   2.47442   2.48317   2.48349   2.51448
  Beta virt. eigenvalues --    2.52176   2.53156   2.55211   2.55364   2.55620
  Beta virt. eigenvalues --    2.56067   2.56220   2.56270   2.56347   2.56928
  Beta virt. eigenvalues --    2.57178   2.62190   2.62239   2.62376   2.62435
  Beta virt. eigenvalues --    2.63206   2.63351   2.63500   2.63573   2.63642
  Beta virt. eigenvalues --    2.64024   2.64083   2.64113   2.64478   2.64843
  Beta virt. eigenvalues --    2.65284   2.66295   2.69352   2.71474   2.72584
  Beta virt. eigenvalues --    2.73212   2.73310   2.74041   2.74226   2.77475
  Beta virt. eigenvalues --    2.79028   2.79446   2.82908   2.85655   2.85882
  Beta virt. eigenvalues --    2.86927   2.87184   2.87397   2.88084   2.88771
  Beta virt. eigenvalues --    2.88890   2.89694   2.89891   2.89980   2.90966
  Beta virt. eigenvalues --    2.91392   2.92925   2.93012   2.94411   2.94624
  Beta virt. eigenvalues --    2.95144   2.95311   2.95422   2.96074   2.96263
  Beta virt. eigenvalues --    2.96394   2.96678   2.96992   2.98565   2.98588
  Beta virt. eigenvalues --    2.98724   2.99622   3.01492   3.01508   3.02348
  Beta virt. eigenvalues --    3.02638   3.03590   3.06436   3.06905   3.07078
  Beta virt. eigenvalues --    3.07324   3.08183   3.08468   3.09120   3.09227
  Beta virt. eigenvalues --    3.09727   3.11710   3.12026   3.12601   3.18336
  Beta virt. eigenvalues --    3.18575   3.34749   3.60191   3.71323   3.79880
  Beta virt. eigenvalues --    3.81208  45.21282
          Condensed to atoms (all electrons):
          Atomic-Atomic Spin Densities.
 Mulliken charges and spin densities:
               1          2
     1  O   -0.498175   0.099757
     2  P    0.238445   0.128562
     3  O   -0.143977  -0.036909
     4  N   -0.190025   0.004358
     5  C   -0.007587  -0.005093
     6  H    0.051318   0.000230
     7  H    0.089397   0.000326
     8  O   -0.498846   0.099065
     9  P    0.235742   0.117912
    10  C    0.010389  -0.000247
    11  C   -0.010224   0.001395
    12  H    0.012846   0.000405
    13  C    0.077725  -0.001994
    14  H    0.023151   0.000063
    15  C   -0.009565   0.001413
    16  H    0.012909   0.000403
    17  C    0.009938  -0.000169
    18  C   -0.008876  -0.004998
    19  H    0.050277  -0.000079
    20  H    0.089335   0.000316
    21  C   -0.397958   0.008445
    22  C   -0.387862   0.016245
    23  C    0.071981  -0.000548
    24  H    0.008746  -0.000526
    25  H    0.015018   0.000899
    26  H    0.031087   0.000551
    27  C    0.069606  -0.000400
    28  H    0.010603  -0.000160
    29  H    0.025108   0.000820
    30  H    0.030918   0.000067
    31  Ru   0.052401   1.570888
    32  C    0.086599   0.002125
    33  H    0.007458   0.003261
    34  H    0.007697  -0.000054
    35  H    0.017873  -0.000096
    36  C    0.079473   0.000114
    37  H    0.010109   0.000006
    38  H    0.009177   0.000019
    39  H    0.004062   0.001158
    40  C    0.067364  -0.001150
    41  H    0.010063   0.000184
    42  H    0.025290   0.000570
    43  H    0.016854   0.000048
    44  C    0.086810   0.001680
    45  H    0.004475   0.004474
    46  H    0.024333   0.000034
    47  H    0.026298  -0.000060
    48  C   -0.400009   0.007851
    49  C   -0.388656   0.016704
    50  C    0.069780  -0.000341
    51  H    0.010193  -0.000152
    52  H    0.024357   0.000776
    53  H    0.030878   0.000065
    54  C    0.086958   0.002028
    55  H    0.007031   0.002962
    56  H    0.007488  -0.000050
    57  H    0.017563  -0.000098
    58  C    0.071628  -0.000441
    59  H    0.008498  -0.000513
    60  H    0.014665   0.000931
    61  H    0.033787   0.000456
    62  C    0.079101   0.000019
    63  H    0.010069  -0.000006
    64  H    0.009114   0.000018
    65  H    0.004933   0.001414
    66  C    0.067893  -0.001120
    67  H    0.009805   0.000155
    68  H    0.025115   0.000610
    69  H    0.016627   0.000050
    70  C    0.086878   0.001507
    71  H    0.004129   0.004380
    72  H    0.023630   0.000051
    73  H    0.026258  -0.000047
    74  C    0.069798  -0.048074
    75  H    0.211626  -0.001158
    76  H    0.213085  -0.001286
 Sum of Mulliken charges =  -0.00000   2.00000
 Mulliken charges and spin densities with hydrogens summed into heavy atoms:
               1          2
     1  O   -0.285090   0.098471
     2  P    0.238445   0.128562
     3  O   -0.143977  -0.036909
     4  N   -0.190025   0.004358
     5  C    0.133129  -0.004537
     8  O   -0.287220   0.097906
     9  P    0.235742   0.117912
    10  C    0.010389  -0.000247
    11  C    0.002622   0.001801
    13  C    0.100876  -0.001931
    15  C    0.003344   0.001815
    17  C    0.009938  -0.000169
    18  C    0.130737  -0.004761
    21  C   -0.397958   0.008445
    22  C   -0.387862   0.016245
    23  C    0.126831   0.000376
    27  C    0.136235   0.000327
    31  Ru   0.052401   1.570888
    32  C    0.119627   0.005235
    36  C    0.102821   0.001297
    40  C    0.119570  -0.000348
    44  C    0.141915   0.006129
    48  C   -0.400009   0.007851
    49  C   -0.388656   0.016704
    50  C    0.135208   0.000348
    54  C    0.119040   0.004841
    58  C    0.128578   0.000433
    62  C    0.103216   0.001444
    66  C    0.119441  -0.000305
    70  C    0.140895   0.005890
    74  C    0.069798  -0.048074
 Electronic spatial extent (au):  <R**2>=          14860.2082
 Charge=              0.0000 electrons
 Dipole moment (field-independent basis, Debye):
    X=             -0.1883    Y=              7.2572    Z=             -0.0044  Tot=              7.2596
 Quadrupole moment (field-independent basis, Debye-Ang):
   XX=           -183.4851   YY=           -211.5756   ZZ=           -229.2730
   XY=             -0.1469   XZ=             -6.7328   YZ=             -0.0222
 Traceless Quadrupole moment (field-independent basis, Debye-Ang):
   XX=             24.6261   YY=             -3.4644   ZZ=            -21.1618
   XY=             -0.1469   XZ=             -6.7328   YZ=             -0.0222
 Octapole moment (field-independent basis, Debye-Ang**2):
  XXX=             -3.2400  YYY=             94.7849  ZZZ=              0.0512  XYY=              0.8605
  XXY=             -7.7474  XXZ=              0.0387  XZZ=             -1.7944  YZZ=            -32.3359
  YYZ=             -0.7696  XYZ=             -0.1105
 Hexadecapole moment (field-independent basis, Debye-Ang**3):
 XXXX=         -12472.3743 YYYY=          -4206.5295 ZZZZ=          -3062.8588 XXXY=              2.2813
 XXXZ=            -26.4366 YYYX=             -4.4479 YYYZ=             -0.9784 ZZZX=             -6.3347
 ZZZY=              1.1990 XXYY=          -2805.0876 XXZZ=          -2608.5209 YYZZ=          -1222.1236
 XXYZ=             -0.6395 YYXZ=            -58.5044 ZZXY=              2.6636
 N-N= 4.377902495427D+03 E-N=-1.341291514735D+04  KE= 1.921505801965D+03
 Unable to Open any file for archive entry.
 1\1\GINC-NODE126\SP\UB3LYP TD-FC\def2SVP\C24H45N1O3P2Ru1(3)\DO57CIG\03
 -Jun-2024\0\\# td=(triplets,nstates=50,conver=3) b3lyp scrf=(smd,solve
 nt=water) def2svp empiricaldispersion=gd3bj int=ultrafine guess=read g
 eom=check scf=xqc\\Opt_Ru_DFT_T_TDDFT\\0,3\O,0,4.5443276641,5.35547725
 09,10.5858725904\P,0,6.678186868,5.6137370134,7.9089964857\O,0,6.87750
 44172,8.1077351569,11.6464171146\N,0,6.3465506681,3.1716781351,9.89987
 38066\C,0,7.4291405904,3.911866822,7.7908914023\H,0,7.4678079823,3.555
 114594,6.7527370837\H,0,8.4699016983,4.0410444849,8.1274776668\O,0,8.5
 625063296,4.8972191704,10.6596340933\P,0,6.3733740924,3.736820352,13.0
 309384399\C,0,6.779892261,2.8600980581,8.6550358882\C,0,6.6514453248,1
 .5601976234,8.1533068347\H,0,7.009193281,1.3392719718,7.1470446509\C,0
 ,6.0619318878,0.5753055281,8.9396562266\H,0,5.9493188184,-0.4434848276
 ,8.5625072671\C,0,5.6192867779,0.9108795575,10.2152942079\H,0,5.157058
 2161,0.1671506907,10.8653271053\C,0,5.7781733401,2.2213538888,10.67993
 45638\C,0,5.2890591267,2.56590181,12.0641753658\H,0,5.0963658495,1.638
 4473845,12.6202254484\H,0,4.3263652451,3.0923749774,11.9691652823\C,0,
 8.0130150371,6.7029970615,7.0932470129\C,0,5.1181852462,5.5030077088,6
 .8160579108\C,0,9.0758893768,6.9658794766,8.1756235264\H,0,9.864805375
 3,7.6093732798,7.7510507052\H,0,9.5499101538,6.0403629245,8.529604876\
 H,0,8.6458368917,7.4826098042,9.046569958\C,0,7.3937735475,8.054610553
 7,6.7076966\H,0,8.1997041365,8.7460409724,6.409689003\H,0,6.8597085421
 ,8.5106342867,7.5561234374\H,0,6.6977298878,7.9745685703,5.861983495\R
 u,0,6.5705724362,5.2915115096,10.6762061747\C,0,8.6944748138,6.0610075
 226,5.8772442\H,0,9.4458313507,6.7620314067,5.4740267729\H,0,7.9886878
 463,5.8297960555,5.0699547977\H,0,9.2245818981,5.1364747267,6.14861694
 59\C,0,4.2523372583,6.7335726055,7.1382556776\H,0,3.2995381226,6.66692
 35032,6.586025234\H,0,4.736655411,7.677317611,6.8550284505\H,0,4.02003
 70752,6.7729212325,8.2135327817\C,0,4.3374537226,4.2485638056,7.247924
 5982\H,0,3.3480942385,4.2671035481,6.7604514298\H,0,4.175139602,4.2144
 902262,8.3336074704\H,0,4.8379609306,3.3216281024,6.937092431\C,0,5.39
 18156951,5.4082202549,5.3115803109\H,0,4.4359855922,5.2576986344,4.779
 8024087\H,0,6.0420997872,4.5537237431,5.0697968128\H,0,5.8513615405,6.
 3207241934,4.9089826116\C,0,5.2196716536,4.260592133,14.4550409571\C,0
 ,7.7916114751,2.6289276515,13.6640923875\C,0,6.0598082931,4.8667597898
 ,15.5888304503\H,0,5.3849442752,5.3379976133,16.3230035089\H,0,6.74187
 89245,5.6462387583,15.2143632226\H,0,6.6539025781,4.112681525,16.12249
 97329\C,0,4.3279749798,3.135248729,14.99667637\H,0,3.7013839667,3.5333
 769921,15.813693229\H,0,4.9069141122,2.2955368134,15.4008929321\H,0,3.
 6478164813,2.746645244,14.2248417198\C,0,4.3235285429,5.3757138608,13.
 8856366504\H,0,3.6452852745,5.7305614204,14.679939924\H,0,3.7065417829
 ,5.0277797512,13.0458560689\H,0,4.9192993748,6.232470649,13.5362255121
 \C,0,8.9019323644,3.5636369257,14.1752628559\H,0,9.7786938163,2.963711
 8359,14.4730688519\H,0,8.590610917,4.1541594551,15.0468648989\H,0,9.21
 92710548,4.2583487458,13.3822657529\C,0,8.3469318722,1.8551038644,12.4
 547513215\H,0,9.2826859512,1.3555254572,12.7575405966\H,0,8.5792475191
 ,2.5184066612,11.6102638819\H,0,7.6561309688,1.0742477794,12.109482929
 6\C,0,7.3882037427,1.6204648166,14.7443798642\H,0,8.2515523928,0.97187
 31357,14.9749472745\H,0,6.5672751288,0.9695943988,14.4067016656\H,0,7.
 0837661006,2.1073878325,15.6805401213\C,0,6.7559301122,7.0064753751,11
 .276152793\H,0,9.0702770064,5.6829065101,10.9036344596\H,0,4.213289703
 5,6.2083739734,10.8987362095\\Version=ES64L-G16RevC.02\State=3-A\HF=-1
 998.9486195\S2=2.019128\S2-1=0.\S2A=2.00021\RMSD=7.254e-10\PG=C01 [X(C
 24H45N1O3P2Ru1)]\\@
 The archive entry for this job was punched.


 EVERYBODY NEEDS BEAUTY AS WELL AS BREAD, PLACES TO PLAY IN AND PRAY IN,
 WHERE NATURE MAY HEAL AND CHEER AND GIVE STRENGTH TO BODY AND SOUL ALIKE.

                                    -- JOHN MUIR
 Job cpu time:       1 days 18 hours  9 minutes 46.6 seconds.
 Elapsed time:       0 days  1 hours 49 minutes  3.6 seconds.
 File lengths (MBytes):  RWF=  11755 Int=      0 D2E=      0 Chk=    906 Scr=      1
 Normal termination of Gaussian 16 at Mon Jun  3 22:46:16 2024.
