 Entering Gaussian System, Link 0=g16
 Input=A_Ru_TDDFT_B3LYP_def2SVP_smd_water_Interpol_Geom_0_S_T_10.gjf
 Output=A_Ru_TDDFT_B3LYP_def2SVP_smd_water_Interpol_Geom_0_S_T_10.log
 Initial command:
 /cluster/apps/gaussian/g16_c02/g16/l1.exe "/beegfs/do57cig/gauss2119898/Gau-1089356.inp" -scrdir="/beegfs/do57cig/gauss2119898/"
 Default CPUs for threads: 0-23
 Default is to use a total of  24 processors:
                               24 via shared-memory
                                1 via Linda
 Entering Link 1 = /cluster/apps/gaussian/g16_c02/g16/l1.exe PID=   1089357.
  
 Copyright (c) 1988-2021, Gaussian, Inc.  All Rights Reserved.
  
 This is part of the Gaussian(R) 16 program.  It is based on
 the Gaussian(R) 09 system (copyright 2009, Gaussian, Inc.),
 the Gaussian(R) 03 system (copyright 2003, Gaussian, Inc.),
 the Gaussian(R) 98 system (copyright 1998, Gaussian, Inc.),
 the Gaussian(R) 94 system (copyright 1995, Gaussian, Inc.),
 the Gaussian 92(TM) system (copyright 1992, Gaussian, Inc.),
 the Gaussian 90(TM) system (copyright 1990, Gaussian, Inc.),
 the Gaussian 88(TM) system (copyright 1988, Gaussian, Inc.),
 the Gaussian 86(TM) system (copyright 1986, Carnegie Mellon
 University), and the Gaussian 82(TM) system (copyright 1983,
 Carnegie Mellon University). Gaussian is a federally registered
 trademark of Gaussian, Inc.
  
 This software contains proprietary and confidential information,
 including trade secrets, belonging to Gaussian, Inc.
  
 This software is provided under written license and may be
 used, copied, transmitted, or stored only in accord with that
 written license.
  
 The following legend is applicable only to US Government
 contracts under FAR:
  
                    RESTRICTED RIGHTS LEGEND
  
 Use, reproduction and disclosure by the US Government is
 subject to restrictions as set forth in subparagraphs (a)
 and (c) of the Commercial Computer Software - Restricted
 Rights clause in FAR 52.227-19.
  
 Gaussian, Inc.
 340 Quinnipiac St., Bldg. 40, Wallingford CT 06492
  
  
 ---------------------------------------------------------------
 Warning -- This program may not be used in any manner that
 competes with the business of Gaussian, Inc. or will provide
 assistance to any competitor of Gaussian, Inc.  The licensee
 of this program is prohibited from giving any competitor of
 Gaussian, Inc. access to this program.  By using this program,
 the user acknowledges that Gaussian, Inc. is engaged in the
 business of creating and licensing software in the field of
 computational chemistry and represents and warrants to the
 licensee that it is not a competitor of Gaussian, Inc. and that
 it will not use this program in any manner prohibited above.
 ---------------------------------------------------------------
  

 Cite this work as:
 Gaussian 16, Revision C.02,
 M. J. Frisch, G. W. Trucks, H. B. Schlegel, G. E. Scuseria, 
 M. A. Robb, J. R. Cheeseman, G. Scalmani, V. Barone, 
 G. A. Petersson, H. Nakatsuji, X. Li, M. Caricato, A. V. Marenich, 
 J. Bloino, B. G. Janesko, R. Gomperts, B. Mennucci, H. P. Hratchian, 
 J. V. Ortiz, A. F. Izmaylov, J. L. Sonnenberg, D. Williams-Young, 
 F. Ding, F. Lipparini, F. Egidi, J. Goings, B. Peng, A. Petrone, 
 T. Henderson, D. Ranasinghe, V. G. Zakrzewski, J. Gao, N. Rega, 
 G. Zheng, W. Liang, M. Hada, M. Ehara, K. Toyota, R. Fukuda, 
 J. Hasegawa, M. Ishida, T. Nakajima, Y. Honda, O. Kitao, H. Nakai, 
 T. Vreven, K. Throssell, J. A. Montgomery, Jr., J. E. Peralta, 
 F. Ogliaro, M. J. Bearpark, J. J. Heyd, E. N. Brothers, K. N. Kudin, 
 V. N. Staroverov, T. A. Keith, R. Kobayashi, J. Normand, 
 K. Raghavachari, A. P. Rendell, J. C. Burant, S. S. Iyengar, 
 J. Tomasi, M. Cossi, J. M. Millam, M. Klene, C. Adamo, R. Cammi, 
 J. W. Ochterski, R. L. Martin, K. Morokuma, O. Farkas, 
 J. B. Foresman, and D. J. Fox, Gaussian, Inc., Wallingford CT, 2019.
 
 ******************************************
 Gaussian 16:  ES64L-G16RevC.02  7-Dec-2021
                18-Aug-2024 
 ******************************************
 %chk=A_Ru_TDDFT_B3LYP_def2SVP_smd_water_Interpol_Geom_0_S_T_10.chk
 SetSPE:  set environment variable "OMP_PROC_BIND" = "true"
 SetSPE:  set environment variable "OMP_PLACES" = "{0},{1},{2},{3},{4},{5},{6},{7},{8},{9},{10},{11},{12},{13},{14},{15},{16},{17},{18},{19},{20},{21},{22},{23}"
 ----------------------------------------------------------------------
 # td=(triplets,nstates=10,conver=3) b3lyp scrf=(smd,solvent=water) def
 2svp empiricaldispersion=gd3bj int=ultrafine scf=xqc
 ----------------------------------------------------------------------
 1/38=1,172=1/1;
 2/12=2,17=6,18=5,40=1/2;
 3/5=43,7=101,11=9,25=1,30=1,70=32201,72=1,74=-5,75=-5,124=41/1,2,3,8;
 4//1;
 5/5=2,8=3,13=1,38=5,53=1/2,8;
 8/6=1,10=1,108=10/1;
 9/9=3,41=10,42=1,48=3,70=2/14;
 6/7=2,8=2,9=2,10=2/1;
 99/5=1,9=1/99;
 ---------------------------------------------------------
 A_Ru_TDDFT_B3LYP_def2SVP_smd_water_Interpol_Geom_0_S_T_10
 ---------------------------------------------------------
 Symbolic Z-matrix:
 Charge =  0 Multiplicity = 1
 P                     2.39907  -0.1934   -0.11899 
 N                    -0.04684   1.4487   -0.16411 
 C                     2.17476   1.27669  -1.2191 
 H                     3.1034    1.85127  -1.33474 
 H                     1.91825   0.83424  -2.19696 
 O                    -0.11991  -0.91183  -1.98796 
 P                    -2.43793  -0.12887   0.13355 
 C                     1.06295   2.12934  -0.68502 
 C                     1.16496   3.50226  -0.64329 
 H                     2.06157   3.96292  -1.06591 
 C                     0.14975   4.30096  -0.05457 
 H                     0.2231    5.3881   -0.01486 
 C                    -0.96257   3.60403   0.49139 
 H                    -1.79174   4.14984   0.94936 
 C                    -1.04116   2.23081   0.43711 
 C                    -2.23729   1.49512   0.98218 
 H                    -3.14884   2.10542   0.91746 
 H                    -2.09237   1.24019   2.04687 
 Ru                   -0.03541  -0.69388   0.08681 
 H                     0.60932  -1.48718  -2.24073 
 C                    -3.26912   0.23808  -1.54119 
 C                    -3.59423  -1.14982   1.25551 
 C                     3.53089  -1.38892  -1.08817 
 C                     3.27106   0.40576   1.46586 
 C                     2.48188   1.60227   2.03507 
 H                     2.58436   2.4889    1.39842 
 H                     1.41249   1.40807   2.16687 
 H                     2.90279   1.84368   3.02434 
 C                     3.30962  -0.73642   2.50165 
 H                     3.46409  -0.30376   3.50312 
 H                     2.3835   -1.32363   2.53288 
 H                     4.13645  -1.42991   2.31213 
 C                     4.70098   0.89881   1.19496 
 H                     5.09408   1.34352   2.12431 
 H                     5.37964   0.08548   0.9096 
 H                     4.72793   1.67635   0.41732 
 C                     4.65327  -0.61993  -1.80578 
 H                     5.29753  -0.05588  -1.12305 
 H                     5.28643  -1.35207  -2.33433 
 H                     4.25192   0.07163  -2.56026 
 C                     4.11709  -2.44848  -0.14459 
 H                     4.61099  -3.22251  -0.75416 
 H                     4.87233  -2.03404   0.53401 
 H                     3.33527  -2.94105   0.45316 
 C                     2.71077  -2.11908  -2.16082 
 H                     1.90885  -2.72743  -1.7197 
 H                     2.29618  -1.42503  -2.90547 
 H                     3.38368  -2.80435  -2.70077 
 C                    -3.24553  -1.018    -2.42925 
 H                    -3.58352  -0.73561  -3.44055 
 H                    -2.22784  -1.42123  -2.50322 
 H                    -3.91971  -1.80169  -2.06523 
 C                    -4.71448   0.72816  -1.36931 
 H                    -5.08466   1.04965  -2.3572 
 H                    -5.38683  -0.06114  -1.00972 
 H                    -4.78599   1.59274  -0.69268 
 C                    -2.47143   1.35752  -2.23573 
 H                    -2.52997   2.30589  -1.68439 
 H                    -1.41705   1.09357  -2.36352 
 H                    -2.91626   1.52051  -3.23112 
 C                    -2.79117  -1.68218   2.45047 
 H                    -1.96807  -2.33861   2.13894 
 H                    -2.38966  -0.87135   3.07096 
 H                    -3.47299  -2.27379   3.08273 
 C                    -4.74018  -0.28781   1.81306 
 H                    -5.38638   0.12992   1.03405 
 H                    -5.36659  -0.92551   2.45901 
 H                    -4.36286   0.53694   2.43454 
 C                    -4.15163  -2.35246   0.48095 
 H                    -4.66896  -3.01667   1.19222 
 H                    -4.88098  -2.05638  -0.28355 
 H                    -3.35071  -2.93435   0.0001 
 O                    -0.20892  -2.66915   0.07638 
 C                     0.02166  -0.5901    1.92429 
 H                    -0.27     -2.83205  -0.8832 
 O                     0.07687  -0.53203   3.08172 
 
 Stoichiometry    C24H45NO3P2Ru
 Framework group  C1[X(C24H45NO3P2Ru)]
 Deg. of freedom   222
 Full point group                 C1      NOp   1
 Largest Abelian subgroup         C1      NOp   1
 Largest concise Abelian subgroup C1      NOp   1
                         Standard orientation:                         
 ---------------------------------------------------------------------
 Center     Atomic      Atomic             Coordinates (Angstroms)
 Number     Number       Type             X           Y           Z
 ---------------------------------------------------------------------
      1         15           0        2.410829   -0.167671   -0.185050
      2          7           0       -0.035080    1.474430   -0.230170
      3          6           0        2.186520    1.302419   -1.285160
      4          1           0        3.115160    1.876999   -1.400800
      5          1           0        1.930010    0.859970   -2.263020
      6          8           0       -0.108151   -0.886100   -2.054020
      7         15           0       -2.426171   -0.103139    0.067490
      8          6           0        1.074710    2.155070   -0.751080
      9          6           0        1.176721    3.527990   -0.709350
     10          1           0        2.073331    3.988649   -1.131970
     11          6           0        0.161511    4.326690   -0.120630
     12          1           0        0.234861    5.413830   -0.080920
     13          6           0       -0.950809    3.629761    0.425330
     14          1           0       -1.779979    4.175571    0.883300
     15          6           0       -1.029400    2.256541    0.371050
     16          6           0       -2.225530    1.520851    0.916120
     17          1           0       -3.137080    2.131151    0.851400
     18          1           0       -2.080610    1.265921    1.980810
     19         44           0       -0.023651   -0.668150    0.020750
     20          1           0        0.621079   -1.461450   -2.306790
     21          6           0       -3.257361    0.263811   -1.607250
     22          6           0       -3.582471   -1.124088    1.189450
     23          6           0        3.542649   -1.363191   -1.154230
     24          6           0        3.282819    0.431489    1.399800
     25          6           0        2.493640    1.627999    1.969010
     26          1           0        2.596120    2.514629    1.332360
     27          1           0        1.424250    1.433800    2.100810
     28          1           0        2.914550    1.869409    2.958280
     29          6           0        3.321379   -0.710691    2.435590
     30          1           0        3.475849   -0.278031    3.437060
     31          1           0        2.395259   -1.297901    2.466820
     32          1           0        4.148209   -1.404181    2.246070
     33          6           0        4.712740    0.924538    1.128900
     34          1           0        5.105840    1.369248    2.058250
     35          1           0        5.391399    0.111208    0.843540
     36          1           0        4.739690    1.702078    0.351260
     37          6           0        4.665029   -0.594201   -1.871840
     38          1           0        5.309289   -0.030152   -1.189110
     39          1           0        5.298189   -1.326342   -2.400390
     40          1           0        4.263679    0.097359   -2.626320
     41          6           0        4.128848   -2.422751   -0.210650
     42          1           0        4.622748   -3.196781   -0.820220
     43          1           0        4.884089   -2.008312    0.467950
     44          1           0        3.347028   -2.915321    0.387100
     45          6           0        2.722529   -2.093351   -2.226880
     46          1           0        1.920608   -2.701700   -1.785760
     47          1           0        2.307939   -1.399301   -2.971530
     48          1           0        3.395438   -2.778621   -2.766830
     49          6           0       -3.233771   -0.992269   -2.495310
     50          1           0       -3.571761   -0.709878   -3.506610
     51          1           0       -2.216081   -1.395499   -2.569280
     52          1           0       -3.907951   -1.775958   -2.131290
     53          6           0       -4.702720    0.753892   -1.435370
     54          1           0       -5.072900    1.075382   -2.423260
     55          1           0       -5.375071   -0.035408   -1.075780
     56          1           0       -4.774230    1.618472   -0.758740
     57          6           0       -2.459670    1.383251   -2.301790
     58          1           0       -2.518210    2.331621   -1.750450
     59          1           0       -1.405290    1.119301   -2.429580
     60          1           0       -2.904500    1.546241   -3.297180
     61          6           0       -2.779411   -1.656449    2.384410
     62          1           0       -1.956312   -2.312879    2.072880
     63          1           0       -2.377901   -0.845619    3.004900
     64          1           0       -3.461232   -2.248059    3.016670
     65          6           0       -4.728421   -0.262078    1.747000
     66          1           0       -5.374621    0.155652    0.967990
     67          1           0       -5.354831   -0.899778    2.392950
     68          1           0       -4.351101    0.562672    2.368480
     69          6           0       -4.139872   -2.326728    0.414890
     70          1           0       -4.657202   -2.990938    1.126160
     71          1           0       -4.869221   -2.030648   -0.349610
     72          1           0       -3.338952   -2.908619   -0.065960
     73          8           0       -0.197162   -2.643420    0.010320
     74          6           0        0.033419   -0.564370    1.858230
     75          1           0       -0.258242   -2.806320   -0.949260
     76          8           0        0.088629   -0.506300    3.015660
 ---------------------------------------------------------------------
 Rotational constants (GHZ):           0.1987277           0.1044449           0.0968363
 Standard basis: def2SVP (5D, 7F)
 There are   719 symmetry adapted cartesian basis functions of A   symmetry.
 There are   684 symmetry adapted basis functions of A   symmetry.
   684 basis functions,  1154 primitive gaussians,   719 cartesian basis functions
   133 alpha electrons      133 beta electrons
       nuclear repulsion energy      4531.1030322003 Hartrees.
 NAtoms=   76 NActive=   76 NUniq=   76 SFac= 1.00D+00 NAtFMM=   60 NAOKFM=T Big=T
 Integral buffers will be    131072 words long.
 Regular integral format.
 Two-electron integral symmetry is turned on.
 Nuclear repulsion after empirical dispersion term =     4530.8811337493 Hartrees.
 ------------------------------------------------------------------------------
 Polarizable Continuum Model (PCM)
 =================================
 Model                : PCM.
 Atomic radii         : SMD-Coulomb.
 Polarization charges : Total charges.
 Charge compensation  : None.
 Solution method      : On-the-fly selection.
 Cavity type          : VdW (van der Waals Surface) (Alpha=1.000).
 Cavity algorithm     : GePol (No added spheres)
                        Default sphere list used, NSphG=   76.
                        Lebedev-Laikov grids with approx.  5.0 points / Ang**2.
                        Smoothing algorithm: York/Karplus (Gamma=1.0000).
                        Polarization charges: spherical gaussians, with
                                              point-specific exponents (IZeta= 3).
                        Self-potential: point-specific (ISelfS= 7).
                        Self-field    : sphere-specific E.n sum rule (ISelfD= 2).
 Solvent              : Water, Eps=  78.355300 Eps(inf)=   1.777849
 ------------------------------------------------------------------------------
 ------------------------------------------------------------------------------
 Atomic radii for non-electrostatic terms: SMD-CDS.
 ------------------------------------------------------------------------------
 Nuclear repulsion after PCM non-electrostatic terms =     4530.8997575752 Hartrees.
 One-electron integrals computed using PRISM.
   1 Symmetry operations used in ECPInt.
 ECPInt:  NShTT=   54615 NPrTT=  190596 LenC2=   48135 LenP2D=  113922.
 LDataN:  DoStor=T MaxTD1= 7 Len=  274
 NBasis=   684 RedAO= T EigKep=  4.88D-04  NBF=   684
 NBsUse=   684 1.00D-06 EigRej= -1.00D+00 NBFU=   684
 Defaulting to unpruned grid for atomic number  44.
 ExpMin= 3.92D-02 ExpMax= 8.00D+03 ExpMxC= 1.20D+03 IAcc=3 IRadAn=         5 AccDes= 0.00D+00
 Harris functional with IExCor=  402 and IRadAn=       5 diagonalized for initial guess.
 HarFok:  IExCor=  402 AccDes= 0.00D+00 IRadAn=         5 IDoV= 1 UseB2=F ITyADJ=14
 ICtDFT=  3500011 ScaDFX=  1.000000  1.000000  1.000000  1.000000
 Defaulting to unpruned grid for atomic number  44.
 FoFCou: FMM=F IPFlag=           0 FMFlag=      100000 FMFlg1=        2001
         NFxFlg=           0 DoJE=T BraDBF=F KetDBF=T FulRan=T
         wScrn=  0.000000 ICntrl=       500 IOpCl=  0 I1Cent=   200000004 NGrid=           0
         NMat0=    1 NMatS0=      1 NMatT0=    0 NMatD0=    1 NMtDS0=    0 NMtDT0=    0
 Petite list used in FoFCou.
 Requested convergence on RMS density matrix=1.00D-08 within  32 cycles.
 Requested convergence on MAX density matrix=1.00D-06.
 Requested convergence on             energy=1.00D-06.
 No special actions if energy rises.
 Defaulting to unpruned grid for atomic number  44.
 Defaulting to unpruned grid for atomic number  44.
 Defaulting to unpruned grid for atomic number  44.
 Defaulting to unpruned grid for atomic number  44.
 Defaulting to unpruned grid for atomic number  44.
 Defaulting to unpruned grid for atomic number  44.
 Defaulting to unpruned grid for atomic number  44.
 Defaulting to unpruned grid for atomic number  44.
 Defaulting to unpruned grid for atomic number  44.
 Defaulting to unpruned grid for atomic number  44.
 Defaulting to unpruned grid for atomic number  44.
 Defaulting to unpruned grid for atomic number  44.
 Defaulting to unpruned grid for atomic number  44.
 Defaulting to unpruned grid for atomic number  44.
 Defaulting to unpruned grid for atomic number  44.
 Defaulting to unpruned grid for atomic number  44.
 Defaulting to unpruned grid for atomic number  44.
 Defaulting to unpruned grid for atomic number  44.
 Defaulting to unpruned grid for atomic number  44.
 Defaulting to unpruned grid for atomic number  44.
 Defaulting to unpruned grid for atomic number  44.
 Defaulting to unpruned grid for atomic number  44.
 Defaulting to unpruned grid for atomic number  44.
 Defaulting to unpruned grid for atomic number  44.
 Inv3:  Mode=1 IEnd=    64338483.
 Iteration    1 A*A^-1 deviation from unit magnitude is 4.00D-15 for   2856.
 Iteration    1 A*A^-1 deviation from orthogonality  is 2.44D-15 for   3257   2084.
 Iteration    1 A^-1*A deviation from unit magnitude is 4.00D-15 for   2856.
 Iteration    1 A^-1*A deviation from orthogonality  is 2.64D-15 for   4224   4146.
 Error on total polarization charges =  0.07686
 SCF Done:  E(RB3LYP) =  -1998.98883267     A.U. after   19 cycles
            NFock= 19  Conv=0.20D-08     -V/T= 2.0404
 SMD-CDS (non-electrostatic) energy       (kcal/mol) =      11.69
 (included in total energy above)
 QCSCF skips out because SCF is already converged.
 DoSCS=F DFT=T ScalE2(SS,OS)=  1.000000  1.000000
 ExpMin= 3.92D-02 ExpMax= 8.00D+03 ExpMxC= 1.20D+03 IAcc=3 IRadAn=         5 AccDes= 0.00D+00
 HarFok:  IExCor=  205 AccDes= 0.00D+00 IRadAn=         5 IDoV=-2 UseB2=F ITyADJ=14
 ICtDFT= 12500011 ScaDFX=  1.000000  1.000000  1.000000  1.000000
 Defaulting to unpruned grid for atomic number  44.
 GSVD:  LWork=       -2100 too small for GESVD, short by        9450 words or        9450 for optimal perf.
 Range of M.O.s used for correlation:    43   684
 NBasis=   684 NAE=   133 NBE=   133 NFC=    42 NFV=     0
 NROrb=    642 NOA=    91 NOB=    91 NVA=   551 NVB=   551
 NEqPCM:  Using non-equilibrium solvation (IEInf=1, Eps=  78.3553, EpsInf=   1.7778)
 Inv3:  Mode=1 IEnd=    64338483.
 Iteration    1 A*A^-1 deviation from unit magnitude is 3.11D-15 for   2528.
 Iteration    1 A*A^-1 deviation from orthogonality  is 2.22D-15 for   2350    967.
 Iteration    1 A^-1*A deviation from unit magnitude is 3.33D-15 for   2528.
 Iteration    1 A^-1*A deviation from orthogonality  is 1.13D-14 for   4194   4146.
 Orbital symmetries:
       Occupied  (A) (A) (A) (A) (A) (A) (A) (A) (A) (A) (A) (A)
                 (A) (A) (A) (A) (A) (A) (A) (A) (A) (A) (A) (A)
                 (A) (A) (A) (A) (A) (A) (A) (A) (A) (A) (A) (A)
                 (A) (A) (A) (A) (A) (A) (A) (A) (A) (A) (A) (A)
                 (A) (A) (A) (A) (A) (A) (A) (A) (A) (A) (A) (A)
                 (A) (A) (A) (A) (A) (A) (A) (A) (A) (A) (A) (A)
                 (A) (A) (A) (A) (A) (A) (A) (A) (A) (A) (A) (A)
                 (A) (A) (A) (A) (A) (A) (A) (A) (A) (A) (A) (A)
                 (A) (A) (A) (A) (A) (A) (A) (A) (A) (A) (A) (A)
                 (A) (A) (A) (A) (A) (A) (A) (A) (A) (A) (A) (A)
                 (A) (A) (A) (A) (A) (A) (A) (A) (A) (A) (A) (A)
                 (A)
       Virtual   (A) (A) (A) (A) (A) (A) (A) (A) (A) (A) (A) (A)
                 (A) (A) (A) (A) (A) (A) (A) (A) (A) (A) (A) (A)
                 (A) (A) (A) (A) (A) (A) (A) (A) (A) (A) (A) (A)
                 (A) (A) (A) (A) (A) (A) (A) (A) (A) (A) (A) (A)
                 (A) (A) (A) (A) (A) (A) (A) (A) (A) (A) (A) (A)
                 (A) (A) (A) (A) (A) (A) (A) (A) (A) (A) (A) (A)
                 (A) (A) (A) (A) (A) (A) (A) (A) (A) (A) (A) (A)
                 (A) (A) (A) (A) (A) (A) (A) (A) (A) (A) (A) (A)
                 (A) (A) (A) (A) (A) (A) (A) (A) (A) (A) (A) (A)
                 (A) (A) (A) (A) (A) (A) (A) (A) (A) (A) (A) (A)
                 (A) (A) (A) (A) (A) (A) (A) (A) (A) (A) (A) (A)
                 (A) (A) (A) (A) (A) (A) (A) (A) (A) (A) (A) (A)
                 (A) (A) (A) (A) (A) (A) (A) (A) (A) (A) (A) (A)
                 (A) (A) (A) (A) (A) (A) (A) (A) (A) (A) (A) (A)
                 (A) (A) (A) (A) (A) (A) (A) (A) (A) (A) (A) (A)
                 (A) (A) (A) (A) (A) (A) (A) (A) (A) (A) (A) (A)
                 (A) (A) (A) (A) (A) (A) (A) (A) (A) (A) (A) (A)
                 (A) (A) (A) (A) (A) (A) (A) (A) (A) (A) (A) (A)
                 (A) (A) (A) (A) (A) (A) (A) (A) (A) (A) (A) (A)
                 (A) (A) (A) (A) (A) (A) (A) (A) (A) (A) (A) (A)
                 (A) (A) (A) (A) (A) (A) (A) (A) (A) (A) (A) (A)
                 (A) (A) (A) (A) (A) (A) (A) (A) (A) (A) (A) (A)
                 (A) (A) (A) (A) (A) (A) (A) (A) (A) (A) (A) (A)
                 (A) (A) (A) (A) (A) (A) (A) (A) (A) (A) (A) (A)
                 (A) (A) (A) (A) (A) (A) (A) (A) (A) (A) (A) (A)
                 (A) (A) (A) (A) (A) (A) (A) (A) (A) (A) (A) (A)
                 (A) (A) (A) (A) (A) (A) (A) (A) (A) (A) (A) (A)
                 (A) (A) (A) (A) (A) (A) (A) (A) (A) (A) (A) (A)
                 (A) (A) (A) (A) (A) (A) (A) (A) (A) (A) (A) (A)
                 (A) (A) (A) (A) (A) (A) (A) (A) (A) (A) (A) (A)
                 (A) (A) (A) (A) (A) (A) (A) (A) (A) (A) (A) (A)
                 (A) (A) (A) (A) (A) (A) (A) (A) (A) (A) (A) (A)
                 (A) (A) (A) (A) (A) (A) (A) (A) (A) (A) (A) (A)
                 (A) (A) (A) (A) (A) (A) (A) (A) (A) (A) (A) (A)
                 (A) (A) (A) (A) (A) (A) (A) (A) (A) (A) (A) (A)
                 (A) (A) (A) (A) (A) (A) (A) (A) (A) (A) (A) (A)
                 (A) (A) (A) (A) (A) (A) (A) (A) (A) (A) (A) (A)
                 (A) (A) (A) (A) (A) (A) (A) (A) (A) (A) (A) (A)
                 (A) (A) (A) (A) (A) (A) (A) (A) (A) (A) (A) (A)
                 (A) (A) (A) (A) (A) (A) (A) (A) (A) (A) (A) (A)
                 (A) (A) (A) (A) (A) (A) (A) (A) (A) (A) (A) (A)
                 (A) (A) (A) (A) (A) (A) (A) (A) (A) (A) (A) (A)
                 (A) (A) (A) (A) (A) (A) (A) (A) (A) (A) (A) (A)
                 (A) (A) (A) (A) (A) (A) (A) (A) (A) (A) (A) (A)
                 (A) (A) (A) (A) (A) (A) (A) (A) (A) (A) (A) (A)
                 (A) (A) (A) (A) (A) (A) (A) (A) (A) (A) (A)
    40 initial guesses have been made.
 Convergence on wavefunction:    0.001000000000000
 Iteration     1 Dimension    40 NMult     0 NNew     40
 CISAX will form    40 AO SS matrices at one time.
 Defaulting to unpruned grid for atomic number  44.
 Defaulting to unpruned grid for atomic number  44.
 Defaulting to unpruned grid for atomic number  44.
 Defaulting to unpruned grid for atomic number  44.
 Defaulting to unpruned grid for atomic number  44.
 Defaulting to unpruned grid for atomic number  44.
 Defaulting to unpruned grid for atomic number  44.
 Defaulting to unpruned grid for atomic number  44.
 Defaulting to unpruned grid for atomic number  44.
 Defaulting to unpruned grid for atomic number  44.
 Defaulting to unpruned grid for atomic number  44.
 Defaulting to unpruned grid for atomic number  44.
 Defaulting to unpruned grid for atomic number  44.
 Defaulting to unpruned grid for atomic number  44.
 Defaulting to unpruned grid for atomic number  44.
 Defaulting to unpruned grid for atomic number  44.
 Defaulting to unpruned grid for atomic number  44.
 Defaulting to unpruned grid for atomic number  44.
 Defaulting to unpruned grid for atomic number  44.
 Defaulting to unpruned grid for atomic number  44.
 Defaulting to unpruned grid for atomic number  44.
 Defaulting to unpruned grid for atomic number  44.
 Defaulting to unpruned grid for atomic number  44.
 Defaulting to unpruned grid for atomic number  44.
 New state      2 was old state      5
 New state      4 was old state      2
 New state      5 was old state      4
 New state      6 was old state     12
 New state      7 was old state     13
 New state      8 was old state      7
 New state     10 was old state     14
 Iteration     2 Dimension    60 NMult    40 NNew     20
 Iteration     3 Dimension    80 NMult    60 NNew     20
 Iteration     4 Dimension   100 NMult    80 NNew     20
 Iteration     5 Dimension   112 NMult   100 NNew     12
 Iteration     6 Dimension   116 NMult   112 NNew      4
 Iteration     7 Dimension   120 NMult   116 NNew      4
 Iteration     8 Dimension   122 NMult   120 NNew      2
 ***********************************************************************
 Excited states from <AA,BB:AA,BB> singles matrix:
 ***********************************************************************
 
 Ground to excited state transition densities written to RWF  633
 Ground to excited state transition electric dipole moments (Au):
       state          X           Y           Z        Dip. S.      Osc.
         1        -0.0000     -0.0000     -0.0000      0.0000      0.0000
         2        -0.0000     -0.0000     -0.0000      0.0000      0.0000
         3        -0.0000     -0.0000     -0.0000      0.0000      0.0000
         4        -0.0000     -0.0000     -0.0000      0.0000      0.0000
         5        -0.0000     -0.0000     -0.0000      0.0000      0.0000
         6        -0.0000     -0.0000     -0.0000      0.0000      0.0000
         7        -0.0000     -0.0000     -0.0000      0.0000      0.0000
         8        -0.0000     -0.0000     -0.0000      0.0000      0.0000
         9        -0.0000     -0.0000     -0.0000      0.0000      0.0000
        10        -0.0000     -0.0000     -0.0000      0.0000      0.0000
 Ground to excited state transition velocity dipole moments (Au):
       state          X           Y           Z        Dip. S.      Osc.
         1         0.0000      0.0000      0.0000      0.0000      0.0000
         2         0.0000      0.0000      0.0000      0.0000      0.0000
         3         0.0000      0.0000      0.0000      0.0000      0.0000
         4         0.0000      0.0000      0.0000      0.0000      0.0000
         5         0.0000      0.0000      0.0000      0.0000      0.0000
         6         0.0000      0.0000      0.0000      0.0000      0.0000
         7         0.0000      0.0000      0.0000      0.0000      0.0000
         8         0.0000      0.0000      0.0000      0.0000      0.0000
         9         0.0000      0.0000      0.0000      0.0000      0.0000
        10         0.0000      0.0000      0.0000      0.0000      0.0000
 Ground to excited state transition magnetic dipole moments (Au):
       state          X           Y           Z
         1         0.0000      0.0000      0.0000
         2         0.0000      0.0000      0.0000
         3         0.0000      0.0000      0.0000
         4         0.0000      0.0000      0.0000
         5         0.0000      0.0000      0.0000
         6         0.0000      0.0000      0.0000
         7         0.0000      0.0000      0.0000
         8         0.0000      0.0000      0.0000
         9         0.0000      0.0000      0.0000
        10         0.0000      0.0000      0.0000
 Ground to excited state transition velocity quadrupole moments (Au):
       state          XX          YY          ZZ          XY          XZ          YZ
         1         0.0000      0.0000      0.0000      0.0000      0.0000      0.0000
         2         0.0000      0.0000      0.0000      0.0000      0.0000      0.0000
         3         0.0000      0.0000      0.0000      0.0000      0.0000      0.0000
         4         0.0000      0.0000      0.0000      0.0000      0.0000      0.0000
         5         0.0000      0.0000      0.0000      0.0000      0.0000      0.0000
         6         0.0000      0.0000      0.0000      0.0000      0.0000      0.0000
         7         0.0000      0.0000      0.0000      0.0000      0.0000      0.0000
         8         0.0000      0.0000      0.0000      0.0000      0.0000      0.0000
         9         0.0000      0.0000      0.0000      0.0000      0.0000      0.0000
        10         0.0000      0.0000      0.0000      0.0000      0.0000      0.0000
 <0|del|b> * <b|rxdel|0> + <0|del|b> * <b|delr+rdel|0>
 Rotatory Strengths (R) in cgs (10**-40 erg-esu-cm/Gauss)
       state          XX          YY          ZZ    R(velocity)    E-M Angle
         1         0.0000      0.0000      0.0000      0.0000       90.00
         2         0.0000      0.0000      0.0000      0.0000       90.00
         3         0.0000      0.0000      0.0000      0.0000       90.00
         4         0.0000      0.0000      0.0000      0.0000       90.00
         5         0.0000      0.0000      0.0000      0.0000       90.00
         6         0.0000      0.0000      0.0000      0.0000       90.00
         7         0.0000      0.0000      0.0000      0.0000       90.00
         8         0.0000      0.0000      0.0000      0.0000       90.00
         9         0.0000      0.0000      0.0000      0.0000       90.00
        10         0.0000      0.0000      0.0000      0.0000       90.00
 1/2[<0|r|b>*<b|rxdel|0> + (<0|rxdel|b>*<b|r|0>)*]
 Rotatory Strengths (R) in cgs (10**-40 erg-esu-cm/Gauss)
       state          XX          YY          ZZ     R(length)
         1         0.0000      0.0000      0.0000      0.0000
         2         0.0000      0.0000      0.0000      0.0000
         3         0.0000      0.0000      0.0000      0.0000
         4         0.0000      0.0000      0.0000      0.0000
         5         0.0000      0.0000      0.0000      0.0000
         6         0.0000      0.0000      0.0000      0.0000
         7         0.0000      0.0000      0.0000      0.0000
         8         0.0000      0.0000      0.0000      0.0000
         9         0.0000      0.0000      0.0000      0.0000
        10         0.0000      0.0000      0.0000      0.0000
  1/2[<0|del|b>*<b|r|0> + (<0|r|b>*<b|del|0>)*] (Au)
       state          X           Y           Z        Dip. S.   Osc.(frdel)
         1        -0.0000     -0.0000     -0.0000      0.0000      0.0000
         2        -0.0000     -0.0000     -0.0000      0.0000      0.0000
         3        -0.0000     -0.0000     -0.0000      0.0000      0.0000
         4        -0.0000     -0.0000     -0.0000      0.0000      0.0000
         5        -0.0000     -0.0000     -0.0000      0.0000      0.0000
         6        -0.0000     -0.0000     -0.0000      0.0000      0.0000
         7        -0.0000     -0.0000     -0.0000      0.0000      0.0000
         8        -0.0000     -0.0000     -0.0000      0.0000      0.0000
         9        -0.0000     -0.0000     -0.0000      0.0000      0.0000
        10        -0.0000     -0.0000     -0.0000      0.0000      0.0000

 Excitation energies and oscillator strengths:
 
 Excited State   1:      Triplet-A      1.9277 eV  643.16 nm  f=0.0000  <S**2>=2.000
     133 ->134         0.67124
     133 ->136        -0.17595
 This state for optimization and/or second-order correction.
 Total Energy, E(TD-HF/TD-DFT) =  -1998.91799000    
 Copying the excited state density for this state as the 1-particle RhoCI density.
 
 Excited State   2:      Triplet-A      2.2925 eV  540.82 nm  f=0.0000  <S**2>=2.000
     133 ->134         0.18691
     133 ->135         0.14078
     133 ->136         0.64582
 
 Excited State   3:      Triplet-A      2.7652 eV  448.37 nm  f=0.0000  <S**2>=2.000
     123 ->134         0.11097
     131 ->134        -0.26229
     132 ->134         0.61188
 
 Excited State   4:      Triplet-A      3.0676 eV  404.18 nm  f=0.0000  <S**2>=2.000
     133 ->135         0.68122
     133 ->136        -0.13855
 
 Excited State   5:      Triplet-A      3.1856 eV  389.20 nm  f=0.0000  <S**2>=2.000
     131 ->134         0.59809
     132 ->134         0.30454
 
 Excited State   6:      Triplet-A      3.3665 eV  368.29 nm  f=0.0000  <S**2>=2.000
     132 ->136         0.10872
     133 ->136         0.10788
     133 ->137        -0.11971
     133 ->138        -0.15715
     133 ->139         0.59783
     133 ->143         0.12708
 
 Excited State   7:      Triplet-A      3.4550 eV  358.86 nm  f=0.0000  <S**2>=2.000
     132 ->135         0.13002
     132 ->136         0.64582
     133 ->139        -0.11628
 
 Excited State   8:      Triplet-A      3.5716 eV  347.14 nm  f=0.0000  <S**2>=2.000
     133 ->137         0.66922
     133 ->139         0.11704
 
 Excited State   9:      Triplet-A      3.7258 eV  332.77 nm  f=0.0000  <S**2>=2.000
     131 ->136         0.19551
     133 ->138         0.63506
     133 ->139         0.13267
 
 Excited State  10:      Triplet-A      3.7582 eV  329.90 nm  f=0.0000  <S**2>=2.000
     128 ->135        -0.10178
     130 ->134        -0.12902
     130 ->136         0.11854
     131 ->135         0.10484
     131 ->136         0.57701
     133 ->138        -0.20973
 SavETr:  write IOETrn=   770 NScale= 10 NData=  16 NLR=1 NState=   10 LETran=     190.

 **********************************************************************

            Population analysis using the SCF Density.

 **********************************************************************

 Orbital symmetries:
       Occupied  (A) (A) (A) (A) (A) (A) (A) (A) (A) (A) (A) (A)
                 (A) (A) (A) (A) (A) (A) (A) (A) (A) (A) (A) (A)
                 (A) (A) (A) (A) (A) (A) (A) (A) (A) (A) (A) (A)
                 (A) (A) (A) (A) (A) (A) (A) (A) (A) (A) (A) (A)
                 (A) (A) (A) (A) (A) (A) (A) (A) (A) (A) (A) (A)
                 (A) (A) (A) (A) (A) (A) (A) (A) (A) (A) (A) (A)
                 (A) (A) (A) (A) (A) (A) (A) (A) (A) (A) (A) (A)
                 (A) (A) (A) (A) (A) (A) (A) (A) (A) (A) (A) (A)
                 (A) (A) (A) (A) (A) (A) (A) (A) (A) (A) (A) (A)
                 (A) (A) (A) (A) (A) (A) (A) (A) (A) (A) (A) (A)
                 (A) (A) (A) (A) (A) (A) (A) (A) (A) (A) (A) (A)
                 (A)
       Virtual   (A) (A) (A) (A) (A) (A) (A) (A) (A) (A) (A) (A)
                 (A) (A) (A) (A) (A) (A) (A) (A) (A) (A) (A) (A)
                 (A) (A) (A) (A) (A) (A) (A) (A) (A) (A) (A) (A)
                 (A) (A) (A) (A) (A) (A) (A) (A) (A) (A) (A) (A)
                 (A) (A) (A) (A) (A) (A) (A) (A) (A) (A) (A) (A)
                 (A) (A) (A) (A) (A) (A) (A) (A) (A) (A) (A) (A)
                 (A) (A) (A) (A) (A) (A) (A) (A) (A) (A) (A) (A)
                 (A) (A) (A) (A) (A) (A) (A) (A) (A) (A) (A) (A)
                 (A) (A) (A) (A) (A) (A) (A) (A) (A) (A) (A) (A)
                 (A) (A) (A) (A) (A) (A) (A) (A) (A) (A) (A) (A)
                 (A) (A) (A) (A) (A) (A) (A) (A) (A) (A) (A) (A)
                 (A) (A) (A) (A) (A) (A) (A) (A) (A) (A) (A) (A)
                 (A) (A) (A) (A) (A) (A) (A) (A) (A) (A) (A) (A)
                 (A) (A) (A) (A) (A) (A) (A) (A) (A) (A) (A) (A)
                 (A) (A) (A) (A) (A) (A) (A) (A) (A) (A) (A) (A)
                 (A) (A) (A) (A) (A) (A) (A) (A) (A) (A) (A) (A)
                 (A) (A) (A) (A) (A) (A) (A) (A) (A) (A) (A) (A)
                 (A) (A) (A) (A) (A) (A) (A) (A) (A) (A) (A) (A)
                 (A) (A) (A) (A) (A) (A) (A) (A) (A) (A) (A) (A)
                 (A) (A) (A) (A) (A) (A) (A) (A) (A) (A) (A) (A)
                 (A) (A) (A) (A) (A) (A) (A) (A) (A) (A) (A) (A)
                 (A) (A) (A) (A) (A) (A) (A) (A) (A) (A) (A) (A)
                 (A) (A) (A) (A) (A) (A) (A) (A) (A) (A) (A) (A)
                 (A) (A) (A) (A) (A) (A) (A) (A) (A) (A) (A) (A)
                 (A) (A) (A) (A) (A) (A) (A) (A) (A) (A) (A) (A)
                 (A) (A) (A) (A) (A) (A) (A) (A) (A) (A) (A) (A)
                 (A) (A) (A) (A) (A) (A) (A) (A) (A) (A) (A) (A)
                 (A) (A) (A) (A) (A) (A) (A) (A) (A) (A) (A) (A)
                 (A) (A) (A) (A) (A) (A) (A) (A) (A) (A) (A) (A)
                 (A) (A) (A) (A) (A) (A) (A) (A) (A) (A) (A) (A)
                 (A) (A) (A) (A) (A) (A) (A) (A) (A) (A) (A) (A)
                 (A) (A) (A) (A) (A) (A) (A) (A) (A) (A) (A) (A)
                 (A) (A) (A) (A) (A) (A) (A) (A) (A) (A) (A) (A)
                 (A) (A) (A) (A) (A) (A) (A) (A) (A) (A) (A) (A)
                 (A) (A) (A) (A) (A) (A) (A) (A) (A) (A) (A) (A)
                 (A) (A) (A) (A) (A) (A) (A) (A) (A) (A) (A) (A)
                 (A) (A) (A) (A) (A) (A) (A) (A) (A) (A) (A) (A)
                 (A) (A) (A) (A) (A) (A) (A) (A) (A) (A) (A) (A)
                 (A) (A) (A) (A) (A) (A) (A) (A) (A) (A) (A) (A)
                 (A) (A) (A) (A) (A) (A) (A) (A) (A) (A) (A) (A)
                 (A) (A) (A) (A) (A) (A) (A) (A) (A) (A) (A) (A)
                 (A) (A) (A) (A) (A) (A) (A) (A) (A) (A) (A) (A)
                 (A) (A) (A) (A) (A) (A) (A) (A) (A) (A) (A) (A)
                 (A) (A) (A) (A) (A) (A) (A) (A) (A) (A) (A) (A)
                 (A) (A) (A) (A) (A) (A) (A) (A) (A) (A) (A) (A)
                 (A) (A) (A) (A) (A) (A) (A) (A) (A) (A) (A)
 The electronic state is 1-A.
 Alpha  occ. eigenvalues --  -77.07400 -77.07181 -19.17286 -19.06662 -19.05787
 Alpha  occ. eigenvalues --  -14.37040 -10.25761 -10.24728 -10.24655 -10.21748
 Alpha  occ. eigenvalues --  -10.20584 -10.20393 -10.20213 -10.20172 -10.20139
 Alpha  occ. eigenvalues --  -10.20125 -10.19606 -10.19570 -10.17445 -10.17353
 Alpha  occ. eigenvalues --  -10.17317 -10.17250 -10.17161 -10.17149 -10.17130
 Alpha  occ. eigenvalues --  -10.17084 -10.17060 -10.16876 -10.16781 -10.16302
 Alpha  occ. eigenvalues --   -6.56578  -6.56368  -4.73208  -4.73148  -4.72999
 Alpha  occ. eigenvalues --   -4.72933  -4.72857  -4.72650  -3.00203  -1.84876
 Alpha  occ. eigenvalues --   -1.83736  -1.83421  -1.08250  -0.94279  -0.89062
 Alpha  occ. eigenvalues --   -0.87369  -0.82267  -0.81520  -0.79991  -0.79877
 Alpha  occ. eigenvalues --   -0.79452  -0.79175  -0.73846  -0.70278  -0.67926
 Alpha  occ. eigenvalues --   -0.67735  -0.67651  -0.67378  -0.66942  -0.66818
 Alpha  occ. eigenvalues --   -0.66549  -0.66518  -0.64327  -0.62156  -0.59790
 Alpha  occ. eigenvalues --   -0.59168  -0.54204  -0.53878  -0.53590  -0.51544
 Alpha  occ. eigenvalues --   -0.51297  -0.50233  -0.49547  -0.47087  -0.47019
 Alpha  occ. eigenvalues --   -0.45628  -0.45531  -0.44813  -0.44591  -0.44369
 Alpha  occ. eigenvalues --   -0.44186  -0.43811  -0.43634  -0.43394  -0.43078
 Alpha  occ. eigenvalues --   -0.42547  -0.42506  -0.42310  -0.42067  -0.41605
 Alpha  occ. eigenvalues --   -0.41518  -0.41294  -0.41075  -0.40056  -0.39720
 Alpha  occ. eigenvalues --   -0.39000  -0.38747  -0.38384  -0.37709  -0.37314
 Alpha  occ. eigenvalues --   -0.37100  -0.37062  -0.36937  -0.36616  -0.36446
 Alpha  occ. eigenvalues --   -0.36194  -0.35844  -0.35408  -0.35387  -0.35207
 Alpha  occ. eigenvalues --   -0.34447  -0.34207  -0.33831  -0.33430  -0.32974
 Alpha  occ. eigenvalues --   -0.32588  -0.32323  -0.32087  -0.31832  -0.31551
 Alpha  occ. eigenvalues --   -0.30674  -0.29808  -0.29175  -0.29109  -0.28887
 Alpha  occ. eigenvalues --   -0.28044  -0.26998  -0.25894  -0.25022  -0.24426
 Alpha  occ. eigenvalues --   -0.21264  -0.19872  -0.16269
 Alpha virt. eigenvalues --   -0.05806  -0.02332  -0.00130   0.01932   0.02633
 Alpha virt. eigenvalues --    0.03326   0.04996   0.05561   0.06336   0.06608
 Alpha virt. eigenvalues --    0.07270   0.07691   0.07869   0.08009   0.08521
 Alpha virt. eigenvalues --    0.08931   0.09223   0.09669   0.10090   0.10197
 Alpha virt. eigenvalues --    0.10544   0.10845   0.11170   0.11279   0.11826
 Alpha virt. eigenvalues --    0.11925   0.12406   0.13151   0.13525   0.13596
 Alpha virt. eigenvalues --    0.13760   0.13911   0.14240   0.14315   0.14591
 Alpha virt. eigenvalues --    0.15004   0.15257   0.15634   0.16303   0.16582
 Alpha virt. eigenvalues --    0.16705   0.17222   0.17445   0.17667   0.17817
 Alpha virt. eigenvalues --    0.17990   0.18307   0.18623   0.19050   0.19515
 Alpha virt. eigenvalues --    0.20015   0.20427   0.20510   0.20792   0.20979
 Alpha virt. eigenvalues --    0.21424   0.21506   0.21681   0.21929   0.22168
 Alpha virt. eigenvalues --    0.22727   0.22887   0.23639   0.24306   0.24669
 Alpha virt. eigenvalues --    0.25018   0.25337   0.25757   0.26255   0.26382
 Alpha virt. eigenvalues --    0.26747   0.27525   0.27585   0.28324   0.28864
 Alpha virt. eigenvalues --    0.29324   0.30317   0.30776   0.32777   0.33445
 Alpha virt. eigenvalues --    0.34251   0.35601   0.36790   0.37643   0.38658
 Alpha virt. eigenvalues --    0.39724   0.40035   0.40286   0.40847   0.41103
 Alpha virt. eigenvalues --    0.41780   0.42023   0.42535   0.43101   0.43284
 Alpha virt. eigenvalues --    0.43578   0.44026   0.44636   0.45414   0.45633
 Alpha virt. eigenvalues --    0.46245   0.46911   0.47460   0.48286   0.49170
 Alpha virt. eigenvalues --    0.49503   0.50154   0.51193   0.52138   0.52766
 Alpha virt. eigenvalues --    0.53544   0.53849   0.54102   0.54503   0.54962
 Alpha virt. eigenvalues --    0.55066   0.55908   0.56147   0.56288   0.56837
 Alpha virt. eigenvalues --    0.57431   0.58230   0.58565   0.58997   0.59372
 Alpha virt. eigenvalues --    0.59934   0.60269   0.60811   0.61076   0.61429
 Alpha virt. eigenvalues --    0.61923   0.62099   0.62747   0.63175   0.63475
 Alpha virt. eigenvalues --    0.63762   0.64032   0.64272   0.64451   0.64654
 Alpha virt. eigenvalues --    0.65241   0.65574   0.65636   0.65839   0.66101
 Alpha virt. eigenvalues --    0.66377   0.66425   0.66789   0.66915   0.67251
 Alpha virt. eigenvalues --    0.67572   0.67912   0.67986   0.68472   0.68689
 Alpha virt. eigenvalues --    0.68949   0.69069   0.69271   0.69551   0.69645
 Alpha virt. eigenvalues --    0.70016   0.70271   0.70287   0.70550   0.71215
 Alpha virt. eigenvalues --    0.71450   0.71921   0.72008   0.72082   0.72736
 Alpha virt. eigenvalues --    0.72848   0.72933   0.73071   0.73472   0.73633
 Alpha virt. eigenvalues --    0.73860   0.74033   0.74297   0.74995   0.75296
 Alpha virt. eigenvalues --    0.75415   0.75942   0.76255   0.76443   0.76709
 Alpha virt. eigenvalues --    0.77228   0.77665   0.77869   0.78286   0.78642
 Alpha virt. eigenvalues --    0.79305   0.79575   0.80264   0.80810   0.81003
 Alpha virt. eigenvalues --    0.81177   0.81740   0.82106   0.82523   0.82561
 Alpha virt. eigenvalues --    0.83152   0.83866   0.84347   0.84573   0.84999
 Alpha virt. eigenvalues --    0.85344   0.86639   0.87393   0.87623   0.88052
 Alpha virt. eigenvalues --    0.89158   0.89545   0.90182   0.90921   0.92282
 Alpha virt. eigenvalues --    0.92451   0.92717   0.94077   0.94211   0.95393
 Alpha virt. eigenvalues --    0.96555   0.97114   0.98771   0.99412   1.00920
 Alpha virt. eigenvalues --    1.01067   1.02295   1.03133   1.03960   1.04902
 Alpha virt. eigenvalues --    1.05430   1.05752   1.06570   1.07124   1.07256
 Alpha virt. eigenvalues --    1.08419   1.08996   1.09575   1.09662   1.11095
 Alpha virt. eigenvalues --    1.12618   1.13481   1.13842   1.15541   1.16198
 Alpha virt. eigenvalues --    1.16581   1.17032   1.17949   1.18943   1.19469
 Alpha virt. eigenvalues --    1.20516   1.21155   1.21459   1.22161   1.22427
 Alpha virt. eigenvalues --    1.22668   1.23523   1.24638   1.24948   1.25220
 Alpha virt. eigenvalues --    1.26478   1.26864   1.27414   1.28378   1.28920
 Alpha virt. eigenvalues --    1.29554   1.30346   1.30647   1.31720   1.32724
 Alpha virt. eigenvalues --    1.33491   1.34601   1.34844   1.35543   1.38085
 Alpha virt. eigenvalues --    1.40284   1.40902   1.42656   1.43645   1.44425
 Alpha virt. eigenvalues --    1.47448   1.48400   1.49883   1.50565   1.51468
 Alpha virt. eigenvalues --    1.51943   1.52246   1.53104   1.53334   1.53946
 Alpha virt. eigenvalues --    1.54370   1.54771   1.55118   1.55670   1.56114
 Alpha virt. eigenvalues --    1.56565   1.56730   1.56884   1.57429   1.58011
 Alpha virt. eigenvalues --    1.58651   1.58993   1.59071   1.59245   1.59537
 Alpha virt. eigenvalues --    1.60018   1.60451   1.61198   1.61527   1.61832
 Alpha virt. eigenvalues --    1.62278   1.63083   1.64296   1.64909   1.65240
 Alpha virt. eigenvalues --    1.65645   1.66826   1.67832   1.67915   1.68405
 Alpha virt. eigenvalues --    1.68869   1.69286   1.70014   1.70680   1.71267
 Alpha virt. eigenvalues --    1.72157   1.73245   1.73790   1.75088   1.76104
 Alpha virt. eigenvalues --    1.76673   1.77431   1.77570   1.77853   1.78022
 Alpha virt. eigenvalues --    1.78250   1.78643   1.79216   1.79581   1.79966
 Alpha virt. eigenvalues --    1.80221   1.80584   1.81001   1.81084   1.81423
 Alpha virt. eigenvalues --    1.82262   1.82909   1.83097   1.83371   1.83864
 Alpha virt. eigenvalues --    1.84394   1.84558   1.84950   1.85077   1.85380
 Alpha virt. eigenvalues --    1.85557   1.86015   1.86486   1.87042   1.87177
 Alpha virt. eigenvalues --    1.87837   1.88594   1.89021   1.89801   1.90176
 Alpha virt. eigenvalues --    1.90888   1.91096   1.91247   1.91824   1.92485
 Alpha virt. eigenvalues --    1.92985   1.92995   1.93592   1.93839   1.93963
 Alpha virt. eigenvalues --    1.94355   1.94554   1.95041   1.95561   1.95725
 Alpha virt. eigenvalues --    1.96165   1.96469   1.96665   1.96757   1.97487
 Alpha virt. eigenvalues --    1.97681   1.98682   1.99176   1.99944   2.00046
 Alpha virt. eigenvalues --    2.00630   2.01187   2.01696   2.01816   2.02620
 Alpha virt. eigenvalues --    2.02648   2.02843   2.03740   2.04225   2.04717
 Alpha virt. eigenvalues --    2.05055   2.06541   2.08700   2.09176   2.10072
 Alpha virt. eigenvalues --    2.10773   2.11704   2.13893   2.15386   2.16090
 Alpha virt. eigenvalues --    2.16520   2.16884   2.17348   2.17899   2.18356
 Alpha virt. eigenvalues --    2.18458   2.18667   2.19340   2.19848   2.20304
 Alpha virt. eigenvalues --    2.20701   2.21103   2.21509   2.22227   2.22896
 Alpha virt. eigenvalues --    2.22988   2.23380   2.23723   2.24518   2.25332
 Alpha virt. eigenvalues --    2.25609   2.27193   2.28346   2.28893   2.29808
 Alpha virt. eigenvalues --    2.31620   2.34770   2.36484   2.37739   2.38431
 Alpha virt. eigenvalues --    2.39159   2.39289   2.39949   2.40576   2.41113
 Alpha virt. eigenvalues --    2.41589   2.42064   2.42616   2.43167   2.43313
 Alpha virt. eigenvalues --    2.43866   2.44480   2.45364   2.46039   2.46685
 Alpha virt. eigenvalues --    2.47522   2.48969   2.49149   2.50966   2.51608
 Alpha virt. eigenvalues --    2.53077   2.55407   2.55695   2.55935   2.56391
 Alpha virt. eigenvalues --    2.56622   2.56748   2.57588   2.57811   2.58820
 Alpha virt. eigenvalues --    2.61274   2.61728   2.62337   2.62439   2.62753
 Alpha virt. eigenvalues --    2.63084   2.63809   2.63976   2.64152   2.64457
 Alpha virt. eigenvalues --    2.64709   2.64995   2.65779   2.66039   2.66693
 Alpha virt. eigenvalues --    2.67678   2.68265   2.70794   2.72519   2.73122
 Alpha virt. eigenvalues --    2.73446   2.74067   2.74517   2.76042   2.79337
 Alpha virt. eigenvalues --    2.80880   2.82139   2.83400   2.85401   2.87567
 Alpha virt. eigenvalues --    2.88034   2.88089   2.88477   2.89170   2.89740
 Alpha virt. eigenvalues --    2.89889   2.90188   2.91027   2.91458   2.91791
 Alpha virt. eigenvalues --    2.93216   2.93381   2.94414   2.94735   2.95280
 Alpha virt. eigenvalues --    2.95772   2.96314   2.96832   2.96989   2.97433
 Alpha virt. eigenvalues --    2.97515   2.97845   2.98815   2.99426   3.00113
 Alpha virt. eigenvalues --    3.01559   3.02394   3.02664   3.03338   3.04999
 Alpha virt. eigenvalues --    3.06018   3.06732   3.07029   3.07624   3.08377
 Alpha virt. eigenvalues --    3.09001   3.09497   3.10066   3.10862   3.11570
 Alpha virt. eigenvalues --    3.11851   3.12491   3.14433   3.21708   3.22478
 Alpha virt. eigenvalues --    3.32708   3.53862   3.75510   3.81871   3.89066
 Alpha virt. eigenvalues --   45.28954
          Condensed to atoms (all electrons):
 Mulliken charges:
               1
     1  P    0.282245
     2  N   -0.236377
     3  C    0.039539
     4  H    0.060107
     5  H    0.089834
     6  O   -0.517351
     7  P    0.293845
     8  C    0.017447
     9  C   -0.002436
    10  H    0.017627
    11  C    0.070633
    12  H    0.033557
    13  C   -0.016394
    14  H    0.016706
    15  C    0.047851
    16  C    0.012987
    17  H    0.067629
    18  H    0.095659
    19  Ru  -0.260978
    20  H    0.162329
    21  C   -0.368641
    22  C   -0.383205
    23  C   -0.379192
    24  C   -0.391358
    25  C    0.080211
    26  H    0.015785
    27  H    0.050104
    28  H    0.017545
    29  C    0.082997
    30  H    0.012552
    31  H    0.035410
    32  H    0.009895
    33  C    0.079392
    34  H    0.009580
    35  H    0.035536
    36  H    0.026391
    37  C    0.077497
    38  H    0.010123
    39  H    0.009615
    40  H    0.023739
    41  C    0.071943
    42  H    0.013736
    43  H    0.033736
    44  H    0.033697
    45  C    0.062318
    46  H    0.026193
    47  H    0.034617
    48  H    0.015419
    49  C    0.078349
    50  H    0.003704
    51  H    0.008891
    52  H    0.002418
    53  C    0.079915
    54  H    0.005684
    55  H    0.032894
    56  H    0.024025
    57  C    0.064644
    58  H    0.019700
    59  H    0.045187
    60  H    0.009609
    61  C    0.082493
    62  H    0.038193
    63  H    0.017951
    64  H    0.009293
    65  C    0.078510
    66  H    0.008841
    67  H    0.009135
    68  H    0.020689
    69  C    0.071964
    70  H    0.011256
    71  H    0.035267
    72  H    0.029845
    73  O   -0.508723
    74  C    0.061951
    75  H    0.181491
    76  O   -0.143268
 Sum of Mulliken charges =  -0.00000
 Mulliken charges with hydrogens summed into heavy atoms:
               1
     1  P    0.282245
     2  N   -0.236377
     3  C    0.189480
     6  O   -0.355022
     7  P    0.293845
     8  C    0.017447
     9  C    0.015191
    11  C    0.104190
    13  C    0.000312
    15  C    0.047851
    16  C    0.176275
    19  Ru  -0.260978
    21  C   -0.368641
    22  C   -0.383205
    23  C   -0.379192
    24  C   -0.391358
    25  C    0.163645
    29  C    0.140854
    33  C    0.150898
    37  C    0.120974
    41  C    0.153112
    45  C    0.138547
    49  C    0.093362
    53  C    0.142518
    57  C    0.139139
    61  C    0.147930
    65  C    0.117175
    69  C    0.148332
    73  O   -0.327232
    74  C    0.061951
    76  O   -0.143268
 Electronic spatial extent (au):  <R**2>=          13373.4490
 Charge=             -0.0000 electrons
 Dipole moment (field-independent basis, Debye):
    X=              2.4403    Y=             12.3387    Z=             -0.5791  Tot=             12.5910
 Quadrupole moment (field-independent basis, Debye-Ang):
   XX=           -176.1272   YY=           -213.2647   ZZ=           -233.3352
   XY=             -3.4025   XZ=            -10.6315   YZ=              5.3777
 Traceless Quadrupole moment (field-independent basis, Debye-Ang):
   XX=             31.4485   YY=             -5.6890   ZZ=            -25.7595
   XY=             -3.4025   XZ=            -10.6315   YZ=              5.3777
 Octapole moment (field-independent basis, Debye-Ang**2):
  XXX=             14.4666  YYY=            111.0349  ZZZ=            -12.7885  XYY=             12.1673
  XXY=             -9.3690  XXZ=              0.5037  XZZ=             11.8813  YZZ=             -7.9221
  YYZ=            -14.0280  XYZ=              0.8822
 Hexadecapole moment (field-independent basis, Debye-Ang**3):
 XXXX=         -10347.0432 YYYY=          -3814.8322 ZZZZ=          -3407.8251 XXXY=            -11.1677
 XXXZ=            -34.0138 YYYX=             -6.6914 YYYZ=             54.4136 ZZZX=            -35.2486
 ZZZY=             26.4143 XXYY=          -2387.9748 XXZZ=          -2264.6487 YYZZ=          -1245.0417
 XXYZ=              2.8999 YYXZ=            -79.6127 ZZXY=            -10.1275
 N-N= 4.530899757575D+03 E-N=-1.371839663601D+04  KE= 1.921391528446D+03
 Unable to Open any file for archive entry.
 1\1\GINC-NODE024\SP\RB3LYP TD-FC\def2SVP\C24H45N1O3P2Ru1\DO57CIG\19-Au
 g-2024\0\\# td=(triplets,nstates=10,conver=3) b3lyp scrf=(smd,solvent=
 water) def2svp empiricaldispersion=gd3bj int=ultrafine scf=xqc\\A_Ru_T
 DDFT_B3LYP_def2SVP_smd_water_Interpol_Geom_0_S_T_10\\0,1\P,0,2.3990706
 6,-0.19339684,-0.11899211\N,0,-0.04683934,1.44870316,-0.16411211\C,0,2
 .17476066,1.27669316,-1.21910211\H,0,3.10340066,1.85127316,-1.33474211
 \H,0,1.91825066,0.83424316,-2.19696211\O,0,-0.11990934,-0.91182684,-1.
 98796211\P,0,-2.43792934,-0.12886684,0.13354789\C,0,1.06295066,2.12934
 316,-0.68502211\C,0,1.16496066,3.50226316,-0.64329211\H,0,2.06157066,3
 .96292316,-1.06591211\C,0,0.14975066,4.30096316,-0.05457211\H,0,0.2231
 0066,5.38810316,-0.01486211\C,0,-0.96256934,3.60403316,0.49138789\H,0,
 -1.79173934,4.14984316,0.94935789\C,0,-1.04115934,2.23081316,0.4371078
 9\C,0,-2.23728934,1.49512316,0.98217789\H,0,-3.14883934,2.10542316,0.9
 1745789\H,0,-2.09236934,1.24019316,2.04686789\Ru,0,-0.03540934,-0.6938
 7684,0.08680789\H,0,0.60932066,-1.48717684,-2.24073211\C,0,-3.26911934
 ,0.23808316,-1.54119211\C,0,-3.59422934,-1.14981684,1.25550789\C,0,3.5
 3089066,-1.38891684,-1.08817211\C,0,3.27106066,0.40576316,1.46585789\C
 ,0,2.48188066,1.60227316,2.03506789\H,0,2.58436066,2.48890316,1.398417
 89\H,0,1.41249066,1.40807316,2.16686789\H,0,2.90279066,1.84368316,3.02
 433789\C,0,3.30962066,-0.73641684,2.50164789\H,0,3.46409066,-0.3037568
 4,3.50311789\H,0,2.38350066,-1.32362684,2.53287789\H,0,4.13645066,-1.4
 2990684,2.31212789\C,0,4.70098066,0.89881316,1.19495789\H,0,5.09408066
 ,1.34352316,2.12430789\H,0,5.37964066,0.08548316,0.90959789\H,0,4.7279
 3066,1.67635316,0.41731789\C,0,4.65327066,-0.61992684,-1.80578211\H,0,
 5.29753066,-0.05587684,-1.12305211\H,0,5.28643066,-1.35206684,-2.33433
 211\H,0,4.25192066,0.07163316,-2.56026211\C,0,4.11709066,-2.44847684,-
 0.14459211\H,0,4.61099066,-3.22250684,-0.75416211\H,0,4.87233066,-2.03
 403684,0.53400789\H,0,3.33527066,-2.94104684,0.45315789\C,0,2.71077066
 ,-2.11907684,-2.16082211\H,0,1.90885066,-2.72742684,-1.71970211\H,0,2.
 29618066,-1.42502684,-2.90547211\H,0,3.38368066,-2.80434684,-2.7007721
 1\C,0,-3.24552934,-1.01799684,-2.42925211\H,0,-3.58351934,-0.73560684,
 -3.44055211\H,0,-2.22783934,-1.42122684,-2.50322211\H,0,-3.91970934,-1
 .80168684,-2.06523211\C,0,-4.71447934,0.72816316,-1.36931211\H,0,-5.08
 465934,1.04965316,-2.35720211\H,0,-5.38682934,-0.06113684,-1.00972211\
 H,0,-4.78598934,1.59274316,-0.69268211\C,0,-2.47142934,1.35752316,-2.2
 3573211\H,0,-2.52996934,2.30589316,-1.68439211\H,0,-1.41704934,1.09357
 316,-2.36352211\H,0,-2.91625934,1.52051316,-3.23112211\C,0,-2.79116934
 ,-1.68217684,2.45046789\H,0,-1.96806934,-2.33860684,2.13893789\H,0,-2.
 38965934,-0.87134684,3.07095789\H,0,-3.47298934,-2.27378684,3.08272789
 \C,0,-4.74017934,-0.28780684,1.81305789\H,0,-5.38637934,0.12992316,1.0
 3404789\H,0,-5.36658934,-0.92550684,2.45900789\H,0,-4.36285934,0.53694
 316,2.43453789\C,0,-4.15162934,-2.35245684,0.48094789\H,0,-4.66895934,
 -3.01666684,1.19221789\H,0,-4.88097934,-2.05637684,-0.28355211\H,0,-3.
 35070934,-2.93434684,0.00009789\O,0,-0.20891934,-2.66914684,0.07637789
 \C,0,0.02166066,-0.59009684,1.92428789\H,0,-0.26999934,-2.83204684,-0.
 88320211\O,0,0.07687066,-0.53202684,3.08171789\\Version=ES64L-G16RevC.
 02\State=1-A\HF=-1998.9888327\RMSD=2.032e-09\PG=C01 [X(C24H45N1O3P2Ru1
 )]\\@
 The archive entry for this job was punched.


 A people that values its privileges above its principles soon loses both.
 -- Dwight D. Eisenhower
 Job cpu time:       0 days  8 hours  6 minutes  8.9 seconds.
 Elapsed time:       0 days  0 hours 21 minutes 26.7 seconds.
 File lengths (MBytes):  RWF=   4041 Int=      0 D2E=      0 Chk=    186 Scr=      1
 Normal termination of Gaussian 16 at Mon Aug 19 00:06:36 2024.
