76

  P  2.39907066 -0.19339684 -0.11899211
  N -0.04683934  1.44870316 -0.16411211
  C  2.17476066  1.27669316 -1.21910211
  H  3.10340066  1.85127316 -1.33474211
  H  1.91825066  0.83424316 -2.19696211
  O -0.11990934 -0.91182684 -1.98796211
  P -2.43792934 -0.12886684  0.13354789
  C  1.06295066  2.12934316 -0.68502211
  C  1.16496066  3.50226316 -0.64329211
  H  2.06157066  3.96292316 -1.06591211
  C  0.14975066  4.30096316 -0.05457211
  H  0.22310066  5.38810316 -0.01486211
  C -0.96256934  3.60403316  0.49138789
  H -1.79173934  4.14984316  0.94935789
  C -1.04115934  2.23081316  0.43710789
  C -2.23728934  1.49512316  0.98217789
  H -3.14883934  2.10542316  0.91745789
  H -2.09236934  1.24019316  2.04686789
 Ru -0.03540934 -0.69387684  0.08680789
  H  0.60932066 -1.48717684 -2.24073211
  C -3.26911934  0.23808316 -1.54119211
  C -3.59422934 -1.14981684  1.25550789
  C  3.53089066 -1.38891684 -1.08817211
  C  3.27106066  0.40576316  1.46585789
  C  2.48188066  1.60227316  2.03506789
  H  2.58436066  2.48890316  1.39841789
  H  1.41249066  1.40807316  2.16686789
  H  2.90279066  1.84368316  3.02433789
  C  3.30962066 -0.73641684  2.50164789
  H  3.46409066 -0.30375684  3.50311789
  H  2.38350066 -1.32362684  2.53287789
  H  4.13645066 -1.42990684  2.31212789
  C  4.70098066  0.89881316  1.19495789
  H  5.09408066  1.34352316  2.12430789
  H  5.37964066  0.08548316  0.90959789
  H  4.72793066  1.67635316  0.41731789
  C  4.65327066 -0.61992684 -1.80578211
  H  5.29753066 -0.05587684 -1.12305211
  H  5.28643066 -1.35206684 -2.33433211
  H  4.25192066  0.07163316 -2.56026211
  C  4.11709066 -2.44847684 -0.14459211
  H  4.61099066 -3.22250684 -0.75416211
  H  4.87233066 -2.03403684  0.53400789
  H  3.33527066 -2.94104684  0.45315789
  C  2.71077066 -2.11907684 -2.16082211
  H  1.90885066 -2.72742684 -1.71970211
  H  2.29618066 -1.42502684 -2.90547211
  H  3.38368066 -2.80434684 -2.70077211
  C -3.24552934 -1.01799684 -2.42925211
  H -3.58351934 -0.73560684 -3.44055211
  H -2.22783934 -1.42122684 -2.50322211
  H -3.91970934 -1.80168684 -2.06523211
  C -4.71447934  0.72816316 -1.36931211
  H -5.08465934  1.04965316 -2.35720211
  H -5.38682934 -0.06113684 -1.00972211
  H -4.78598934  1.59274316 -0.69268211
  C -2.47142934  1.35752316 -2.23573211
  H -2.52996934  2.30589316 -1.68439211
  H -1.41704934  1.09357316 -2.36352211
  H -2.91625934  1.52051316 -3.23112211
  C -2.79116934 -1.68217684  2.45046789
  H -1.96806934 -2.33860684  2.13893789
  H -2.38965934 -0.87134684  3.07095789
  H -3.47298934 -2.27378684  3.08272789
  C -4.74017934 -0.28780684  1.81305789
  H -5.38637934  0.12992316  1.03404789
  H -5.36658934 -0.92550684  2.45900789
  H -4.36285934  0.53694316  2.43453789
  C -4.15162934 -2.35245684  0.48094789
  H -4.66895934 -3.01666684  1.19221789
  H -4.88097934 -2.05637684 -0.28355211
  H -3.35070934 -2.93434684  0.00009789
  O -0.20891934 -2.66914684  0.07637789
  C  0.02166066 -0.59009684  1.92428789
  H -0.26999934 -2.83204684 -0.88320211
  O  0.07687066 -0.53202684  3.08171789