 Entering Gaussian System, Link 0=g16
 Input=A_Ru_Cis_straight_CO_DFT_B3LYP_def2SVP_smd_water_T_3MC_freezedScan_3_0.gjf
 Output=A_Ru_Cis_straight_CO_DFT_B3LYP_def2SVP_smd_water_T_3MC_freezedScan_3_0.log
 Initial command:
 /cluster/apps/gaussian/g16_c02/g16/l1.exe "/beegfs/do57cig/gauss2178647/Gau-523958.inp" -scrdir="/beegfs/do57cig/gauss2178647/"
 Default CPUs for threads: 0-23
 Default is to use a total of  24 processors:
                               24 via shared-memory
                                1 via Linda
 Entering Link 1 = /cluster/apps/gaussian/g16_c02/g16/l1.exe PID=    523959.
  
 Copyright (c) 1988-2021, Gaussian, Inc.  All Rights Reserved.
  
 This is part of the Gaussian(R) 16 program.  It is based on
 the Gaussian(R) 09 system (copyright 2009, Gaussian, Inc.),
 the Gaussian(R) 03 system (copyright 2003, Gaussian, Inc.),
 the Gaussian(R) 98 system (copyright 1998, Gaussian, Inc.),
 the Gaussian(R) 94 system (copyright 1995, Gaussian, Inc.),
 the Gaussian 92(TM) system (copyright 1992, Gaussian, Inc.),
 the Gaussian 90(TM) system (copyright 1990, Gaussian, Inc.),
 the Gaussian 88(TM) system (copyright 1988, Gaussian, Inc.),
 the Gaussian 86(TM) system (copyright 1986, Carnegie Mellon
 University), and the Gaussian 82(TM) system (copyright 1983,
 Carnegie Mellon University). Gaussian is a federally registered
 trademark of Gaussian, Inc.
  
 This software contains proprietary and confidential information,
 including trade secrets, belonging to Gaussian, Inc.
  
 This software is provided under written license and may be
 used, copied, transmitted, or stored only in accord with that
 written license.
  
 The following legend is applicable only to US Government
 contracts under FAR:
  
                    RESTRICTED RIGHTS LEGEND
  
 Use, reproduction and disclosure by the US Government is
 subject to restrictions as set forth in subparagraphs (a)
 and (c) of the Commercial Computer Software - Restricted
 Rights clause in FAR 52.227-19.
  
 Gaussian, Inc.
 340 Quinnipiac St., Bldg. 40, Wallingford CT 06492
  
  
 ---------------------------------------------------------------
 Warning -- This program may not be used in any manner that
 competes with the business of Gaussian, Inc. or will provide
 assistance to any competitor of Gaussian, Inc.  The licensee
 of this program is prohibited from giving any competitor of
 Gaussian, Inc. access to this program.  By using this program,
 the user acknowledges that Gaussian, Inc. is engaged in the
 business of creating and licensing software in the field of
 computational chemistry and represents and warrants to the
 licensee that it is not a competitor of Gaussian, Inc. and that
 it will not use this program in any manner prohibited above.
 ---------------------------------------------------------------
  

 Cite this work as:
 Gaussian 16, Revision C.02,
 M. J. Frisch, G. W. Trucks, H. B. Schlegel, G. E. Scuseria, 
 M. A. Robb, J. R. Cheeseman, G. Scalmani, V. Barone, 
 G. A. Petersson, H. Nakatsuji, X. Li, M. Caricato, A. V. Marenich, 
 J. Bloino, B. G. Janesko, R. Gomperts, B. Mennucci, H. P. Hratchian, 
 J. V. Ortiz, A. F. Izmaylov, J. L. Sonnenberg, D. Williams-Young, 
 F. Ding, F. Lipparini, F. Egidi, J. Goings, B. Peng, A. Petrone, 
 T. Henderson, D. Ranasinghe, V. G. Zakrzewski, J. Gao, N. Rega, 
 G. Zheng, W. Liang, M. Hada, M. Ehara, K. Toyota, R. Fukuda, 
 J. Hasegawa, M. Ishida, T. Nakajima, Y. Honda, O. Kitao, H. Nakai, 
 T. Vreven, K. Throssell, J. A. Montgomery, Jr., J. E. Peralta, 
 F. Ogliaro, M. J. Bearpark, J. J. Heyd, E. N. Brothers, K. N. Kudin, 
 V. N. Staroverov, T. A. Keith, R. Kobayashi, J. Normand, 
 K. Raghavachari, A. P. Rendell, J. C. Burant, S. S. Iyengar, 
 J. Tomasi, M. Cossi, J. M. Millam, M. Klene, C. Adamo, R. Cammi, 
 J. W. Ochterski, R. L. Martin, K. Morokuma, O. Farkas, 
 J. B. Foresman, and D. J. Fox, Gaussian, Inc., Wallingford CT, 2019.
 
 ******************************************
 Gaussian 16:  ES64L-G16RevC.02  7-Dec-2021
                16-Jan-2025 
 ******************************************
 %chk=A_Ru_Cis_straight_CO_DFT_B3LYP_def2SVP_smd_water_T_3MC_freezedScan_3_0.chk
 %Oldchk=A_Ru_Cis_straight_CO_DFT_B3LYP_def2SVP_smd_water_T_3MC_tweaked_geom.chk
 SetSPE:  set environment variable "OMP_PROC_BIND" = "true"
 SetSPE:  set environment variable "OMP_PLACES" = "{0},{1},{2},{3},{4},{5},{6},{7},{8},{9},{10},{11},{12},{13},{14},{15},{16},{17},{18},{19},{20},{21},{22},{23}"
 Copying data from "A_Ru_Cis_straight_CO_DFT_B3LYP_def2SVP_smd_water_T_3MC_tweaked_geom.chk" to current chk file "A_Ru_Cis_straight_CO_DFT_B3LYP_def2SVP_smd_water_T_3MC_freezedScan_3_0.chk"
 IOpt=  2 FromEx=T IUOpen= 4 IOptOp= 5 NList=   0 IFRang= 0 IUIn= 4 IUOut= 2.
 ----------------------------------------------------------------------
 # ub3lyp scrf=(smd,solvent=water) def2svp empiricaldispersion=gd3bj in
 t=ultrafine scf=xqc guess=read
 ----------------------------------------------------------------------
 1/38=1,172=1/1;
 2/12=2,17=6,18=5,40=1/2;
 3/5=43,7=101,11=2,25=1,30=1,70=32201,72=1,74=-5,75=-5,116=2,124=41/1,2,3;
 4/5=1/1;
 5/5=2,8=3,13=1,38=6,53=1/2,8;
 6/7=2,8=2,9=2,10=2,28=1/1;
 99/5=1,9=1/99;
 -----------------------------------------------------------------
 A_Ru_Cis_DFT_B3LYP_def2svp_smd_water_T_Opt_3MLCT_from_3MLCT_trans
 -----------------------------------------------------------------
 Symbolic Z-matrix:
 Charge =  0 Multiplicity = 3
 P                     2.41287  -0.09445  -0.14427 
 N                    -0.01475   1.67011  -0.06783 
 C                     2.18893   1.49713  -1.07451 
 H                     3.11357   2.08778  -1.10925 
 H                     1.95374   1.18983  -2.10723 
 O                    -0.14264  -1.08023  -2.14018 
 P                    -2.42832  -0.08809   0.05285 
 C                     1.05418   2.32638  -0.53428 
 C                     1.11454   3.72489  -0.50488 
 H                     1.99296   4.24178  -0.8947 
 C                     0.04121   4.42916   0.04221 
 H                     0.06246   5.52053   0.08467 
 C                    -1.05745   3.7268    0.53842 
 H                    -1.91242   4.24591   0.9748 
 C                    -1.05312   2.32834   0.45994 
 C                    -2.21296   1.51017   0.96894 
 H                    -3.13223   2.11112   0.97092 
 H                    -2.01158   1.21929   2.01409 
 Ru                   -0.01216  -1.01071  -0.05204 
 H                     0.69263  -1.43269  -2.46465 
 C                    -3.25187   0.41483  -1.59784 
 C                    -3.68924  -1.02651   1.14174 
 C                     3.67297  -1.03308  -1.23516 
 C                     3.23895   0.41126   1.50261 
 C                     2.31678   1.43515   2.19419 
 H                     2.31506   2.40048   1.67103 
 H                     1.27969   1.09286   2.28422 
 H                     2.70225   1.61289   3.21134 
 C                     3.38249  -0.83161   2.40377 
 H                     3.52116  -0.50317   3.44683 
 H                     2.5012   -1.48389   2.37483 
 H                     4.25606  -1.43458   2.13164 
 C                     4.61489   1.06906   1.3283 
 H                     4.96074   1.42544   2.3136 
 H                     5.36867   0.36483   0.95343 
 H                     4.57881   1.94031   0.65747 
 C                     4.74511  -0.11475  -1.84278 
 H                     5.32271   0.43253  -1.08959 
 H                     5.45173  -0.73695  -2.41789 
 H                     4.30851   0.61248  -2.54204 
 C                     4.33071  -2.15353  -0.41795 
 H                     4.87364  -2.82209  -1.10618 
 H                     5.05768  -1.76684   0.3071 
 H                     3.58406  -2.75868   0.11881 
 C                     2.90649  -1.68714  -2.39423 
 H                     2.18531  -2.43269  -2.03005 
 H                     2.39151  -0.94284  -3.01938 
 H                     3.62757  -2.21171  -3.04201 
 C                    -3.30587  -0.81202  -2.52674 
 H                    -3.62278  -0.48034  -3.53017 
 H                    -2.31853  -1.28297  -2.615 
 H                    -4.02958  -1.56193  -2.18718 
 C                    -4.65929   1.0031   -1.43317 
 H                    -5.00037   1.37308  -2.41529 
 H                    -5.38874   0.25561  -1.09525 
 H                    -4.67761   1.85483  -0.73672 
 C                    -2.36523   1.48708  -2.25899 
 H                    -2.38909   2.43881  -1.71058 
 H                    -1.32231   1.16439  -2.35618 
 H                    -2.75854   1.68174  -3.27055 
 C                    -2.92324  -1.65842   2.31252 
 H                    -2.18595  -2.39536   1.96655 
 H                    -2.40875  -0.90796   2.92696 
 H                    -3.646    -2.18045   2.96126 
 C                    -4.77689  -0.11411   1.73112 
 H                    -5.36247   0.41004   0.96803 
 H                    -5.47445  -0.73612   2.31738 
 H                    -4.3525    0.63299   2.41706 
 C                    -4.32708  -2.16304   0.3303 
 H                    -4.88209  -2.82163   1.01863 
 H                    -5.03944  -1.79445  -0.41883 
 H                    -3.56632  -2.77505  -0.17851 
 O                     0.03157  -3.99509  -0.3546 
 C                     0.05929  -1.04637   1.76685 
 H                    -0.03179  -3.99718  -1.32541 
 O                     0.12708  -1.08764   2.93618 
 
 Stoichiometry    C24H45NO3P2Ru(3)
 Framework group  C1[X(C24H45NO3P2Ru)]
 Deg. of freedom   222
 Full point group                 C1      NOp   1
 Largest Abelian subgroup         C1      NOp   1
 Largest concise Abelian subgroup C1      NOp   1
                         Standard orientation:                         
 ---------------------------------------------------------------------
 Center     Atomic      Atomic             Coordinates (Angstroms)
 Number     Number       Type             X           Y           Z
 ---------------------------------------------------------------------
      1         15           0        2.412523   -0.070477   -0.140035
      2          7           0       -0.015854    1.694271   -0.101814
      3          6           0        2.187940    1.500541   -1.104448
      4          1           0        3.112322    2.090706   -1.151896
      5          1           0        1.952926    1.170907   -2.130291
      6          8           0       -0.142469   -1.100237   -2.114287
      7         15           0       -2.428678   -0.061955    0.056730
      8          6           0        1.052810    2.340776   -0.582288
      9          6           0        1.112565    3.739621   -0.583093
     10          1           0        1.990776    4.248354   -0.983955
     11          6           0        0.038905    4.455078   -0.051384
     12          1           0        0.059683    5.547115   -0.032506
     13          6           0       -1.059472    3.763121    0.459846
     14          1           0       -1.914687    4.291163    0.884882
     15          6           0       -1.054537    2.363296    0.411584
     16          6           0       -2.214049    1.555811    0.938091
     17          1           0       -3.133579    2.156264    0.927060
     18          1           0       -2.012584    1.287655    1.989285
     19         44           0       -0.012116   -0.985580   -0.028126
     20          1           0        0.692968   -1.459263   -2.431036
     21          6           0       -3.252366    0.404843   -1.604472
     22          6           0       -3.689241   -0.977183    1.165583
     23          6           0        3.673077   -1.031909   -1.210363
     24          6           0        3.238314    0.471038    1.495563
     25          6           0        2.315668    1.509227    2.164838
     26          1           0        2.313560    2.463029    1.620945
     27          1           0        1.278725    1.168513    2.262203
     28          1           0        2.701015    1.709056    3.177920
     29          6           0        3.382348   -0.752022    2.423358
     30          1           0        3.520833   -0.401067    3.459086
     31          1           0        2.501345   -1.405149    2.408486
     32          1           0        4.256190   -1.360345    2.164350
     33          6           0        4.613975    1.125510    1.307135
     34          1           0        4.959633    1.503240    2.284521
     35          1           0        5.368075    0.413682    0.947588
     36          1           0        4.577548    1.982062    0.617641
     37          6           0        4.744849   -0.126452   -1.837631
     38          1           0        5.322177    0.437224   -1.096415
     39          1           0        5.451759   -0.760618   -2.399147
     40          1           0        4.307965    0.585319   -2.552453
     41          6           0        4.331262   -2.134160   -0.369116
     42          1           0        4.874513   -2.817191   -1.042734
     43          1           0        5.058039   -1.731584    0.347432
     44          1           0        3.584856   -2.727895    0.180558
     45          6           0        2.906936   -1.711171   -2.355058
     46          1           0        2.186056   -2.448996   -1.974892
     47          1           0        2.391659   -0.980774   -2.996154
     48          1           0        3.628271   -2.249296   -2.991340
     49          6           0       -3.305794   -0.841811   -2.506654
     50          1           0       -3.622808   -0.532008   -3.517033
     51          1           0       -2.318256   -1.314130   -2.584691
     52          1           0       -4.029197   -1.584521   -2.151008
     53          6           0       -4.660048    0.995917   -1.452590
     54          1           0       -5.001242    1.344457   -2.442488
     55          1           0       -5.389194    0.255589   -1.098636
     56          1           0       -4.678770    1.862484   -0.774704
     57          6           0       -2.366167    1.462949   -2.288587
     58          1           0       -2.390460    2.426282   -1.760860
     59          1           0       -1.323098    1.138681   -2.378752
     60          1           0       -2.759514    1.635548   -3.304128
     61          6           0       -2.923016   -1.583330    2.349770
     62          1           0       -2.185397   -2.327252    2.019813
     63          1           0       -2.408883   -0.819559    2.947876
     64          1           0       -3.645578   -2.091546    3.009598
     65          6           0       -4.777311   -0.052737    1.735083
     66          1           0       -5.363083    0.454553    0.960831
     67          1           0       -5.474631   -0.662247    2.334617
     68          1           0       -4.353273    0.709178    2.404743
     69          6           0       -4.326554   -2.131250    0.378856
     70          1           0       -4.881304   -2.775065    1.081232
     71          1           0       -5.039040   -1.779230   -0.378087
     72          1           0       -3.565501   -2.753773   -0.116594
     73          8           0        0.032916   -3.975782   -0.266167
     74          6           0        0.059275   -0.981918    1.791109
     75          1           0       -0.030403   -3.998863   -1.236706
     76          8           0        0.127024   -0.997895    2.961063
 ---------------------------------------------------------------------
 Rotational constants (GHZ):           0.1805020           0.1022943           0.0911010
 Standard basis: def2SVP (5D, 7F)
 There are   719 symmetry adapted cartesian basis functions of A   symmetry.
 There are   684 symmetry adapted basis functions of A   symmetry.
   684 basis functions,  1154 primitive gaussians,   719 cartesian basis functions
   134 alpha electrons      132 beta electrons
       nuclear repulsion energy      4422.4275695371 Hartrees.
 NAtoms=   76 NActive=   76 NUniq=   76 SFac= 1.00D+00 NAtFMM=   60 NAOKFM=T Big=T
 Integral buffers will be    131072 words long.
 Raffenetti 2 integral format.
 Two-electron integral symmetry is turned on.
 Nuclear repulsion after empirical dispersion term =     4422.2062461555 Hartrees.
 ------------------------------------------------------------------------------
 Polarizable Continuum Model (PCM)
 =================================
 Model                : PCM.
 Atomic radii         : SMD-Coulomb.
 Polarization charges : Total charges.
 Charge compensation  : None.
 Solution method      : On-the-fly selection.
 Cavity type          : VdW (van der Waals Surface) (Alpha=1.000).
 Cavity algorithm     : GePol (No added spheres)
                        Default sphere list used, NSphG=   76.
                        Lebedev-Laikov grids with approx.  5.0 points / Ang**2.
                        Smoothing algorithm: York/Karplus (Gamma=1.0000).
                        Polarization charges: spherical gaussians, with
                                              point-specific exponents (IZeta= 3).
                        Self-potential: point-specific (ISelfS= 7).
                        Self-field    : sphere-specific E.n sum rule (ISelfD= 2).
 Solvent              : Water, Eps=  78.355300 Eps(inf)=   1.777849
 ------------------------------------------------------------------------------
 ------------------------------------------------------------------------------
 Atomic radii for non-electrostatic terms: SMD-CDS.
 ------------------------------------------------------------------------------
 Nuclear repulsion after PCM non-electrostatic terms =     4422.2256545541 Hartrees.
 One-electron integrals computed using PRISM.
   1 Symmetry operations used in ECPInt.
 ECPInt:  NShTT=   54615 NPrTT=  190596 LenC2=   47752 LenP2D=  112431.
 LDataN:  DoStor=T MaxTD1= 7 Len=  274
 NBasis=   684 RedAO= T EigKep=  4.90D-04  NBF=   684
 NBsUse=   684 1.00D-06 EigRej= -1.00D+00 NBFU=   684
 Defaulting to unpruned grid for atomic number  44.
 Initial guess from the checkpoint file:  "A_Ru_Cis_straight_CO_DFT_B3LYP_def2SVP_smd_water_T_3MC_freezedScan_3_0.chk"
 B after Tr=     0.000000   -0.000000    0.000000
         Rot=    0.999939    0.011054    0.000026   -0.000260 Ang=   1.27 deg.
 Initial guess <Sx>= 0.0000 <Sy>= 0.0000 <Sz>= 1.0000 <S**2>= 2.0208 S= 1.0069
 Requested convergence on RMS density matrix=1.00D-08 within  32 cycles.
 Requested convergence on MAX density matrix=1.00D-06.
 Requested convergence on             energy=1.00D-06.
 No special actions if energy rises.
 Defaulting to unpruned grid for atomic number  44.
 Defaulting to unpruned grid for atomic number  44.
 Defaulting to unpruned grid for atomic number  44.
 Defaulting to unpruned grid for atomic number  44.
 Defaulting to unpruned grid for atomic number  44.
 Defaulting to unpruned grid for atomic number  44.
 Defaulting to unpruned grid for atomic number  44.
 Defaulting to unpruned grid for atomic number  44.
 Defaulting to unpruned grid for atomic number  44.
 Defaulting to unpruned grid for atomic number  44.
 Defaulting to unpruned grid for atomic number  44.
 Defaulting to unpruned grid for atomic number  44.
 Defaulting to unpruned grid for atomic number  44.
 Defaulting to unpruned grid for atomic number  44.
 Defaulting to unpruned grid for atomic number  44.
 Defaulting to unpruned grid for atomic number  44.
 Defaulting to unpruned grid for atomic number  44.
 Defaulting to unpruned grid for atomic number  44.
 Defaulting to unpruned grid for atomic number  44.
 Defaulting to unpruned grid for atomic number  44.
 Defaulting to unpruned grid for atomic number  44.
 Defaulting to unpruned grid for atomic number  44.
 Defaulting to unpruned grid for atomic number  44.
 Defaulting to unpruned grid for atomic number  44.
 Inv3:  Mode=1 IEnd=    68087088.
 Iteration    1 A*A^-1 deviation from unit magnitude is 3.22D-15 for   4413.
 Iteration    1 A*A^-1 deviation from orthogonality  is 2.66D-15 for   4340   1531.
 Iteration    1 A^-1*A deviation from unit magnitude is 3.11D-15 for   2558.
 Iteration    1 A^-1*A deviation from orthogonality  is 1.22D-14 for   4694   2804.
 Restarting incremental Fock formation.
 Error on total polarization charges =  0.07713
 SCF Done:  E(UB3LYP) =  -1998.91526391     A.U. after   21 cycles
            NFock= 21  Conv=0.37D-08     -V/T= 2.0404
 <Sx>= 0.0000 <Sy>= 0.0000 <Sz>= 1.0000 <S**2>= 2.0230 S= 1.0076
 <L.S>=  0.00000000000    
 SMD-CDS (non-electrostatic) energy       (kcal/mol) =      12.18
 (included in total energy above)
 Annihilation of the first spin contaminant:
 S**2 before annihilation     2.0230,   after     2.0003
 QCSCF skips out because SCF is already converged.

 **********************************************************************

            Population analysis using the SCF Density.

 **********************************************************************

 Orbital symmetries:
 Alpha Orbitals:
       Occupied  (A) (A) (A) (A) (A) (A) (A) (A) (A) (A) (A) (A)
                 (A) (A) (A) (A) (A) (A) (A) (A) (A) (A) (A) (A)
                 (A) (A) (A) (A) (A) (A) (A) (A) (A) (A) (A) (A)
                 (A) (A) (A) (A) (A) (A) (A) (A) (A) (A) (A) (A)
                 (A) (A) (A) (A) (A) (A) (A) (A) (A) (A) (A) (A)
                 (A) (A) (A) (A) (A) (A) (A) (A) (A) (A) (A) (A)
                 (A) (A) (A) (A) (A) (A) (A) (A) (A) (A) (A) (A)
                 (A) (A) (A) (A) (A) (A) (A) (A) (A) (A) (A) (A)
                 (A) (A) (A) (A) (A) (A) (A) (A) (A) (A) (A) (A)
                 (A) (A) (A) (A) (A) (A) (A) (A) (A) (A) (A) (A)
                 (A) (A) (A) (A) (A) (A) (A) (A) (A) (A) (A) (A)
                 (A) (A)
       Virtual   (A) (A) (A) (A) (A) (A) (A) (A) (A) (A) (A) (A)
                 (A) (A) (A) (A) (A) (A) (A) (A) (A) (A) (A) (A)
                 (A) (A) (A) (A) (A) (A) (A) (A) (A) (A) (A) (A)
                 (A) (A) (A) (A) (A) (A) (A) (A) (A) (A) (A) (A)
                 (A) (A) (A) (A) (A) (A) (A) (A) (A) (A) (A) (A)
                 (A) (A) (A) (A) (A) (A) (A) (A) (A) (A) (A) (A)
                 (A) (A) (A) (A) (A) (A) (A) (A) (A) (A) (A) (A)
                 (A) (A) (A) (A) (A) (A) (A) (A) (A) (A) (A) (A)
                 (A) (A) (A) (A) (A) (A) (A) (A) (A) (A) (A) (A)
                 (A) (A) (A) (A) (A) (A) (A) (A) (A) (A) (A) (A)
                 (A) (A) (A) (A) (A) (A) (A) (A) (A) (A) (A) (A)
                 (A) (A) (A) (A) (A) (A) (A) (A) (A) (A) (A) (A)
                 (A) (A) (A) (A) (A) (A) (A) (A) (A) (A) (A) (A)
                 (A) (A) (A) (A) (A) (A) (A) (A) (A) (A) (A) (A)
                 (A) (A) (A) (A) (A) (A) (A) (A) (A) (A) (A) (A)
                 (A) (A) (A) (A) (A) (A) (A) (A) (A) (A) (A) (A)
                 (A) (A) (A) (A) (A) (A) (A) (A) (A) (A) (A) (A)
                 (A) (A) (A) (A) (A) (A) (A) (A) (A) (A) (A) (A)
                 (A) (A) (A) (A) (A) (A) (A) (A) (A) (A) (A) (A)
                 (A) (A) (A) (A) (A) (A) (A) (A) (A) (A) (A) (A)
                 (A) (A) (A) (A) (A) (A) (A) (A) (A) (A) (A) (A)
                 (A) (A) (A) (A) (A) (A) (A) (A) (A) (A) (A) (A)
                 (A) (A) (A) (A) (A) (A) (A) (A) (A) (A) (A) (A)
                 (A) (A) (A) (A) (A) (A) (A) (A) (A) (A) (A) (A)
                 (A) (A) (A) (A) (A) (A) (A) (A) (A) (A) (A) (A)
                 (A) (A) (A) (A) (A) (A) (A) (A) (A) (A) (A) (A)
                 (A) (A) (A) (A) (A) (A) (A) (A) (A) (A) (A) (A)
                 (A) (A) (A) (A) (A) (A) (A) (A) (A) (A) (A) (A)
                 (A) (A) (A) (A) (A) (A) (A) (A) (A) (A) (A) (A)
                 (A) (A) (A) (A) (A) (A) (A) (A) (A) (A) (A) (A)
                 (A) (A) (A) (A) (A) (A) (A) (A) (A) (A) (A) (A)
                 (A) (A) (A) (A) (A) (A) (A) (A) (A) (A) (A) (A)
                 (A) (A) (A) (A) (A) (A) (A) (A) (A) (A) (A) (A)
                 (A) (A) (A) (A) (A) (A) (A) (A) (A) (A) (A) (A)
                 (A) (A) (A) (A) (A) (A) (A) (A) (A) (A) (A) (A)
                 (A) (A) (A) (A) (A) (A) (A) (A) (A) (A) (A) (A)
                 (A) (A) (A) (A) (A) (A) (A) (A) (A) (A) (A) (A)
                 (A) (A) (A) (A) (A) (A) (A) (A) (A) (A) (A) (A)
                 (A) (A) (A) (A) (A) (A) (A) (A) (A) (A) (A) (A)
                 (A) (A) (A) (A) (A) (A) (A) (A) (A) (A) (A) (A)
                 (A) (A) (A) (A) (A) (A) (A) (A) (A) (A) (A) (A)
                 (A) (A) (A) (A) (A) (A) (A) (A) (A) (A) (A) (A)
                 (A) (A) (A) (A) (A) (A) (A) (A) (A) (A) (A) (A)
                 (A) (A) (A) (A) (A) (A) (A) (A) (A) (A) (A) (A)
                 (A) (A) (A) (A) (A) (A) (A) (A) (A) (A) (A) (A)
                 (A) (A) (A) (A) (A) (A) (A) (A) (A) (A)
 Beta  Orbitals:
       Occupied  (A) (A) (A) (A) (A) (A) (A) (A) (A) (A) (A) (A)
                 (A) (A) (A) (A) (A) (A) (A) (A) (A) (A) (A) (A)
                 (A) (A) (A) (A) (A) (A) (A) (A) (A) (A) (A) (A)
                 (A) (A) (A) (A) (A) (A) (A) (A) (A) (A) (A) (A)
                 (A) (A) (A) (A) (A) (A) (A) (A) (A) (A) (A) (A)
                 (A) (A) (A) (A) (A) (A) (A) (A) (A) (A) (A) (A)
                 (A) (A) (A) (A) (A) (A) (A) (A) (A) (A) (A) (A)
                 (A) (A) (A) (A) (A) (A) (A) (A) (A) (A) (A) (A)
                 (A) (A) (A) (A) (A) (A) (A) (A) (A) (A) (A) (A)
                 (A) (A) (A) (A) (A) (A) (A) (A) (A) (A) (A) (A)
                 (A) (A) (A) (A) (A) (A) (A) (A) (A) (A) (A) (A)
       Virtual   (A) (A) (A) (A) (A) (A) (A) (A) (A) (A) (A) (A)
                 (A) (A) (A) (A) (A) (A) (A) (A) (A) (A) (A) (A)
                 (A) (A) (A) (A) (A) (A) (A) (A) (A) (A) (A) (A)
                 (A) (A) (A) (A) (A) (A) (A) (A) (A) (A) (A) (A)
                 (A) (A) (A) (A) (A) (A) (A) (A) (A) (A) (A) (A)
                 (A) (A) (A) (A) (A) (A) (A) (A) (A) (A) (A) (A)
                 (A) (A) (A) (A) (A) (A) (A) (A) (A) (A) (A) (A)
                 (A) (A) (A) (A) (A) (A) (A) (A) (A) (A) (A) (A)
                 (A) (A) (A) (A) (A) (A) (A) (A) (A) (A) (A) (A)
                 (A) (A) (A) (A) (A) (A) (A) (A) (A) (A) (A) (A)
                 (A) (A) (A) (A) (A) (A) (A) (A) (A) (A) (A) (A)
                 (A) (A) (A) (A) (A) (A) (A) (A) (A) (A) (A) (A)
                 (A) (A) (A) (A) (A) (A) (A) (A) (A) (A) (A) (A)
                 (A) (A) (A) (A) (A) (A) (A) (A) (A) (A) (A) (A)
                 (A) (A) (A) (A) (A) (A) (A) (A) (A) (A) (A) (A)
                 (A) (A) (A) (A) (A) (A) (A) (A) (A) (A) (A) (A)
                 (A) (A) (A) (A) (A) (A) (A) (A) (A) (A) (A) (A)
                 (A) (A) (A) (A) (A) (A) (A) (A) (A) (A) (A) (A)
                 (A) (A) (A) (A) (A) (A) (A) (A) (A) (A) (A) (A)
                 (A) (A) (A) (A) (A) (A) (A) (A) (A) (A) (A) (A)
                 (A) (A) (A) (A) (A) (A) (A) (A) (A) (A) (A) (A)
                 (A) (A) (A) (A) (A) (A) (A) (A) (A) (A) (A) (A)
                 (A) (A) (A) (A) (A) (A) (A) (A) (A) (A) (A) (A)
                 (A) (A) (A) (A) (A) (A) (A) (A) (A) (A) (A) (A)
                 (A) (A) (A) (A) (A) (A) (A) (A) (A) (A) (A) (A)
                 (A) (A) (A) (A) (A) (A) (A) (A) (A) (A) (A) (A)
                 (A) (A) (A) (A) (A) (A) (A) (A) (A) (A) (A) (A)
                 (A) (A) (A) (A) (A) (A) (A) (A) (A) (A) (A) (A)
                 (A) (A) (A) (A) (A) (A) (A) (A) (A) (A) (A) (A)
                 (A) (A) (A) (A) (A) (A) (A) (A) (A) (A) (A) (A)
                 (A) (A) (A) (A) (A) (A) (A) (A) (A) (A) (A) (A)
                 (A) (A) (A) (A) (A) (A) (A) (A) (A) (A) (A) (A)
                 (A) (A) (A) (A) (A) (A) (A) (A) (A) (A) (A) (A)
                 (A) (A) (A) (A) (A) (A) (A) (A) (A) (A) (A) (A)
                 (A) (A) (A) (A) (A) (A) (A) (A) (A) (A) (A) (A)
                 (A) (A) (A) (A) (A) (A) (A) (A) (A) (A) (A) (A)
                 (A) (A) (A) (A) (A) (A) (A) (A) (A) (A) (A) (A)
                 (A) (A) (A) (A) (A) (A) (A) (A) (A) (A) (A) (A)
                 (A) (A) (A) (A) (A) (A) (A) (A) (A) (A) (A) (A)
                 (A) (A) (A) (A) (A) (A) (A) (A) (A) (A) (A) (A)
                 (A) (A) (A) (A) (A) (A) (A) (A) (A) (A) (A) (A)
                 (A) (A) (A) (A) (A) (A) (A) (A) (A) (A) (A) (A)
                 (A) (A) (A) (A) (A) (A) (A) (A) (A) (A) (A) (A)
                 (A) (A) (A) (A) (A) (A) (A) (A) (A) (A) (A) (A)
                 (A) (A) (A) (A) (A) (A) (A) (A) (A) (A) (A) (A)
                 (A) (A) (A) (A) (A) (A) (A) (A) (A) (A) (A) (A)
 The electronic state is 3-A.
 Alpha  occ. eigenvalues --  -77.08847 -77.08535 -19.17998 -19.06843 -19.03367
 Alpha  occ. eigenvalues --  -14.34357 -10.27075 -10.24200 -10.24165 -10.21077
 Alpha  occ. eigenvalues --  -10.20996 -10.20914 -10.20791 -10.20675 -10.19780
 Alpha  occ. eigenvalues --  -10.19776 -10.19745 -10.19698 -10.17700 -10.17552
 Alpha  occ. eigenvalues --  -10.17502 -10.17477 -10.17416 -10.17410 -10.17356
 Alpha  occ. eigenvalues --  -10.17350 -10.17202 -10.17190 -10.17047 -10.16541
 Alpha  occ. eigenvalues --   -6.57999  -6.57699  -4.74601  -4.74542  -4.74351
 Alpha  occ. eigenvalues --   -4.74303  -4.74241  -4.74050  -3.06491  -1.91142
 Alpha  occ. eigenvalues --   -1.91101  -1.89064  -1.08184  -0.95716  -0.88570
 Alpha  occ. eigenvalues --   -0.83653  -0.82519  -0.81940  -0.80057  -0.80020
 Alpha  occ. eigenvalues --   -0.79747  -0.79487  -0.73880  -0.70207  -0.68086
 Alpha  occ. eigenvalues --   -0.67965  -0.67883  -0.67601  -0.67123  -0.67045
 Alpha  occ. eigenvalues --   -0.66826  -0.66708  -0.64036  -0.63163  -0.59907
 Alpha  occ. eigenvalues --   -0.59599  -0.54578  -0.54429  -0.54166  -0.51725
 Alpha  occ. eigenvalues --   -0.51392  -0.50355  -0.49642  -0.47270  -0.47057
 Alpha  occ. eigenvalues --   -0.45957  -0.45582  -0.45173  -0.44864  -0.44730
 Alpha  occ. eigenvalues --   -0.44373  -0.44094  -0.43916  -0.43333  -0.43202
 Alpha  occ. eigenvalues --   -0.42926  -0.42720  -0.42352  -0.42190  -0.41742
 Alpha  occ. eigenvalues --   -0.41553  -0.41322  -0.40579  -0.40167  -0.39191
 Alpha  occ. eigenvalues --   -0.38945  -0.38814  -0.37862  -0.37538  -0.37348
 Alpha  occ. eigenvalues --   -0.37318  -0.37202  -0.37058  -0.36837  -0.36318
 Alpha  occ. eigenvalues --   -0.35942  -0.35577  -0.35543  -0.35040  -0.34976
 Alpha  occ. eigenvalues --   -0.34589  -0.34281  -0.33800  -0.33116  -0.32829
 Alpha  occ. eigenvalues --   -0.32793  -0.32428  -0.32277  -0.31731  -0.31347
 Alpha  occ. eigenvalues --   -0.31168  -0.30406  -0.29641  -0.29479  -0.29102
 Alpha  occ. eigenvalues --   -0.28739  -0.28243  -0.25582  -0.25247  -0.23935
 Alpha  occ. eigenvalues --   -0.22903  -0.21892  -0.21072  -0.19097
 Alpha virt. eigenvalues --   -0.04469  -0.03980  -0.02514  -0.00022   0.00951
 Alpha virt. eigenvalues --    0.04192   0.04327   0.05241   0.05776   0.06170
 Alpha virt. eigenvalues --    0.07202   0.07315   0.07822   0.08109   0.08362
 Alpha virt. eigenvalues --    0.08527   0.09084   0.09614   0.10002   0.10279
 Alpha virt. eigenvalues --    0.10534   0.10806   0.11292   0.11822   0.12082
 Alpha virt. eigenvalues --    0.12274   0.12473   0.13278   0.13474   0.13518
 Alpha virt. eigenvalues --    0.13795   0.13917   0.14026   0.14738   0.14854
 Alpha virt. eigenvalues --    0.15161   0.15361   0.15917   0.16134   0.16515
 Alpha virt. eigenvalues --    0.16715   0.16794   0.17454   0.17641   0.17819
 Alpha virt. eigenvalues --    0.17941   0.18436   0.18715   0.18940   0.19491
 Alpha virt. eigenvalues --    0.19959   0.20104   0.20364   0.20654   0.20711
 Alpha virt. eigenvalues --    0.21001   0.21253   0.21390   0.21668   0.21946
 Alpha virt. eigenvalues --    0.22552   0.22890   0.23031   0.24113   0.24305
 Alpha virt. eigenvalues --    0.24736   0.24933   0.25229   0.25617   0.26093
 Alpha virt. eigenvalues --    0.26483   0.27371   0.27784   0.28592   0.29641
 Alpha virt. eigenvalues --    0.30536   0.30909   0.31246   0.31575   0.34284
 Alpha virt. eigenvalues --    0.35391   0.35696   0.36477   0.37588   0.38243
 Alpha virt. eigenvalues --    0.39359   0.39741   0.40312   0.40530   0.40724
 Alpha virt. eigenvalues --    0.41138   0.41418   0.42315   0.42961   0.43228
 Alpha virt. eigenvalues --    0.43469   0.43953   0.44733   0.45301   0.45654
 Alpha virt. eigenvalues --    0.46304   0.46676   0.47488   0.48179   0.48911
 Alpha virt. eigenvalues --    0.49126   0.49804   0.51173   0.51603   0.52342
 Alpha virt. eigenvalues --    0.52583   0.53143   0.53309   0.53804   0.53954
 Alpha virt. eigenvalues --    0.54398   0.55304   0.56206   0.56405   0.57282
 Alpha virt. eigenvalues --    0.57922   0.57983   0.58340   0.58891   0.59291
 Alpha virt. eigenvalues --    0.59458   0.59971   0.60394   0.61045   0.61235
 Alpha virt. eigenvalues --    0.61919   0.62321   0.62825   0.62945   0.63211
 Alpha virt. eigenvalues --    0.63550   0.63651   0.64355   0.64480   0.64754
 Alpha virt. eigenvalues --    0.64950   0.65255   0.65471   0.65691   0.65895
 Alpha virt. eigenvalues --    0.66062   0.66291   0.66737   0.66790   0.67103
 Alpha virt. eigenvalues --    0.67534   0.67707   0.67791   0.68198   0.68409
 Alpha virt. eigenvalues --    0.68615   0.68761   0.69093   0.69205   0.69306
 Alpha virt. eigenvalues --    0.69732   0.70388   0.70443   0.70688   0.70743
 Alpha virt. eigenvalues --    0.70999   0.71236   0.71368   0.72106   0.72318
 Alpha virt. eigenvalues --    0.72510   0.72742   0.72953   0.73176   0.73385
 Alpha virt. eigenvalues --    0.73449   0.73791   0.74255   0.74498   0.74634
 Alpha virt. eigenvalues --    0.75125   0.75499   0.75842   0.76130   0.76539
 Alpha virt. eigenvalues --    0.76816   0.77375   0.77513   0.78046   0.78388
 Alpha virt. eigenvalues --    0.78592   0.78893   0.79109   0.79768   0.80388
 Alpha virt. eigenvalues --    0.80497   0.80982   0.81511   0.81617   0.81972
 Alpha virt. eigenvalues --    0.82365   0.83061   0.83269   0.84248   0.84664
 Alpha virt. eigenvalues --    0.85149   0.85681   0.86281   0.87140   0.87542
 Alpha virt. eigenvalues --    0.88267   0.88671   0.89361   0.89768   0.90305
 Alpha virt. eigenvalues --    0.91238   0.91623   0.92727   0.94028   0.94788
 Alpha virt. eigenvalues --    0.95634   0.95764   0.97523   0.99088   0.99540
 Alpha virt. eigenvalues --    1.01614   1.01787   1.02601   1.03165   1.03493
 Alpha virt. eigenvalues --    1.04583   1.05125   1.05726   1.06530   1.06824
 Alpha virt. eigenvalues --    1.07470   1.08157   1.08366   1.09458   1.10849
 Alpha virt. eigenvalues --    1.11521   1.12115   1.12895   1.13465   1.14490
 Alpha virt. eigenvalues --    1.15795   1.16299   1.16485   1.17107   1.17896
 Alpha virt. eigenvalues --    1.18681   1.19211   1.19813   1.20646   1.21197
 Alpha virt. eigenvalues --    1.22082   1.23029   1.23982   1.24440   1.24497
 Alpha virt. eigenvalues --    1.24927   1.25690   1.26303   1.27068   1.28049
 Alpha virt. eigenvalues --    1.28217   1.29363   1.30111   1.30766   1.31284
 Alpha virt. eigenvalues --    1.31838   1.33033   1.34284   1.36582   1.37230
 Alpha virt. eigenvalues --    1.37738   1.39083   1.40416   1.42222   1.43947
 Alpha virt. eigenvalues --    1.44833   1.47812   1.48200   1.49203   1.49530
 Alpha virt. eigenvalues --    1.50363   1.51120   1.51772   1.52080   1.52978
 Alpha virt. eigenvalues --    1.53408   1.54073   1.54181   1.54748   1.55284
 Alpha virt. eigenvalues --    1.55679   1.56159   1.56619   1.56914   1.57568
 Alpha virt. eigenvalues --    1.57651   1.58358   1.58441   1.58694   1.59205
 Alpha virt. eigenvalues --    1.59319   1.59926   1.60654   1.60673   1.61190
 Alpha virt. eigenvalues --    1.62185   1.62444   1.63419   1.63532   1.64487
 Alpha virt. eigenvalues --    1.65041   1.65339   1.65757   1.65782   1.66245
 Alpha virt. eigenvalues --    1.67616   1.67961   1.68502   1.69103   1.70444
 Alpha virt. eigenvalues --    1.70803   1.72047   1.72562   1.73733   1.74473
 Alpha virt. eigenvalues --    1.76020   1.76428   1.76823   1.77001   1.77290
 Alpha virt. eigenvalues --    1.77922   1.78422   1.78750   1.78905   1.79143
 Alpha virt. eigenvalues --    1.79400   1.79979   1.80039   1.80743   1.81042
 Alpha virt. eigenvalues --    1.81440   1.81775   1.82161   1.82612   1.83244
 Alpha virt. eigenvalues --    1.83623   1.84131   1.84291   1.84468   1.85030
 Alpha virt. eigenvalues --    1.85142   1.85638   1.85934   1.86194   1.86823
 Alpha virt. eigenvalues --    1.87173   1.87440   1.87474   1.87895   1.88530
 Alpha virt. eigenvalues --    1.88996   1.89957   1.90419   1.90874   1.91437
 Alpha virt. eigenvalues --    1.92410   1.92569   1.92966   1.93171   1.93499
 Alpha virt. eigenvalues --    1.93627   1.93907   1.94160   1.94211   1.94591
 Alpha virt. eigenvalues --    1.95241   1.95655   1.95739   1.95973   1.96799
 Alpha virt. eigenvalues --    1.97142   1.98030   1.98244   1.98698   1.99026
 Alpha virt. eigenvalues --    1.99701   2.00382   2.00711   2.00903   2.01286
 Alpha virt. eigenvalues --    2.01825   2.02298   2.02407   2.03176   2.03552
 Alpha virt. eigenvalues --    2.03978   2.04625   2.06665   2.07874   2.09636
 Alpha virt. eigenvalues --    2.10581   2.11779   2.14787   2.15674   2.15988
 Alpha virt. eigenvalues --    2.16573   2.16693   2.17518   2.17605   2.18202
 Alpha virt. eigenvalues --    2.18461   2.18806   2.18992   2.19503   2.19882
 Alpha virt. eigenvalues --    2.20265   2.20680   2.21272   2.22076   2.22496
 Alpha virt. eigenvalues --    2.22562   2.23128   2.23919   2.24111   2.24751
 Alpha virt. eigenvalues --    2.24839   2.26800   2.27600   2.28789   2.29467
 Alpha virt. eigenvalues --    2.29792   2.34843   2.37847   2.38287   2.38776
 Alpha virt. eigenvalues --    2.39135   2.39800   2.40425   2.40707   2.41199
 Alpha virt. eigenvalues --    2.41958   2.42068   2.42311   2.42864   2.43099
 Alpha virt. eigenvalues --    2.44272   2.44685   2.45761   2.46857   2.46940
 Alpha virt. eigenvalues --    2.47521   2.48839   2.50085   2.51119   2.52074
 Alpha virt. eigenvalues --    2.55138   2.55447   2.55833   2.56152   2.56304
 Alpha virt. eigenvalues --    2.56363   2.56547   2.57376   2.58115   2.61213
 Alpha virt. eigenvalues --    2.61975   2.62295   2.62692   2.62821   2.63353
 Alpha virt. eigenvalues --    2.63581   2.63721   2.63893   2.64122   2.64613
 Alpha virt. eigenvalues --    2.64774   2.65138   2.65716   2.65755   2.67425
 Alpha virt. eigenvalues --    2.69063   2.71975   2.72479   2.72867   2.73160
 Alpha virt. eigenvalues --    2.73726   2.74072   2.74412   2.75406   2.78117
 Alpha virt. eigenvalues --    2.80275   2.81451   2.84047   2.86078   2.87005
 Alpha virt. eigenvalues --    2.87366   2.87623   2.88329   2.88787   2.89045
 Alpha virt. eigenvalues --    2.89169   2.89682   2.90783   2.91226   2.92782
 Alpha virt. eigenvalues --    2.92960   2.93444   2.94291   2.94810   2.95643
 Alpha virt. eigenvalues --    2.95766   2.96229   2.96436   2.96886   2.96995
 Alpha virt. eigenvalues --    2.97413   2.98100   2.98798   2.99583   2.99798
 Alpha virt. eigenvalues --    3.02004   3.02251   3.03843   3.04931   3.05785
 Alpha virt. eigenvalues --    3.05928   3.06290   3.06822   3.07557   3.08468
 Alpha virt. eigenvalues --    3.08779   3.09496   3.09886   3.11037   3.11926
 Alpha virt. eigenvalues --    3.12402   3.14127   3.18641   3.19781   3.36077
 Alpha virt. eigenvalues --    3.61775   3.72599   3.79330   3.86879  45.24372
  Beta  occ. eigenvalues --  -77.08818 -77.08503 -19.18125 -19.06829 -19.03073
  Beta  occ. eigenvalues --  -14.34036 -10.27237 -10.24212 -10.24177 -10.21044
  Beta  occ. eigenvalues --  -10.20990 -10.20923 -10.20766 -10.20664 -10.19765
  Beta  occ. eigenvalues --  -10.19760 -10.19745 -10.19697 -10.17699 -10.17549
  Beta  occ. eigenvalues --  -10.17502 -10.17470 -10.17416 -10.17404 -10.17351
  Beta  occ. eigenvalues --  -10.17350 -10.17200 -10.17189 -10.17048 -10.16541
  Beta  occ. eigenvalues --   -6.57964  -6.57661  -4.74576  -4.74522  -4.74278
  Beta  occ. eigenvalues --   -4.74276  -4.74218  -4.73968  -3.00383  -1.86068
  Beta  occ. eigenvalues --   -1.83374  -1.81553  -1.08409  -0.95440  -0.88528
  Beta  occ. eigenvalues --   -0.82993  -0.82473  -0.81888  -0.80015  -0.79943
  Beta  occ. eigenvalues --   -0.79724  -0.79465  -0.73832  -0.70167  -0.68070
  Beta  occ. eigenvalues --   -0.67959  -0.67866  -0.67598  -0.67119  -0.67035
  Beta  occ. eigenvalues --   -0.66815  -0.66706  -0.63915  -0.63054  -0.59804
  Beta  occ. eigenvalues --   -0.59477  -0.54746  -0.54442  -0.54130  -0.51673
  Beta  occ. eigenvalues --   -0.51310  -0.50260  -0.49592  -0.47210  -0.47043
  Beta  occ. eigenvalues --   -0.45847  -0.45513  -0.45034  -0.44824  -0.44706
  Beta  occ. eigenvalues --   -0.44370  -0.44065  -0.43904  -0.43420  -0.43202
  Beta  occ. eigenvalues --   -0.42896  -0.42749  -0.42363  -0.42180  -0.41791
  Beta  occ. eigenvalues --   -0.41558  -0.41313  -0.40283  -0.40111  -0.39167
  Beta  occ. eigenvalues --   -0.38916  -0.38784  -0.37846  -0.37522  -0.37325
  Beta  occ. eigenvalues --   -0.37301  -0.37197  -0.37028  -0.36802  -0.36308
  Beta  occ. eigenvalues --   -0.35923  -0.35571  -0.35531  -0.34850  -0.34735
  Beta  occ. eigenvalues --   -0.34540  -0.34111  -0.33707  -0.33103  -0.32784
  Beta  occ. eigenvalues --   -0.32591  -0.32369  -0.32193  -0.31619  -0.30611
  Beta  occ. eigenvalues --   -0.29695  -0.29388  -0.29067  -0.28121  -0.27809
  Beta  occ. eigenvalues --   -0.27581  -0.26367  -0.25408  -0.23240  -0.21768
  Beta  occ. eigenvalues --   -0.21254  -0.20412
  Beta virt. eigenvalues --   -0.10007  -0.07150  -0.03923  -0.02520  -0.01940
  Beta virt. eigenvalues --    0.00649   0.01287   0.04296   0.04683   0.05580
  Beta virt. eigenvalues --    0.06163   0.06300   0.07253   0.07451   0.07895
  Beta virt. eigenvalues --    0.08156   0.08487   0.08590   0.09160   0.09643
  Beta virt. eigenvalues --    0.10031   0.10319   0.10568   0.10857   0.11316
  Beta virt. eigenvalues --    0.11837   0.12156   0.12300   0.12575   0.13342
  Beta virt. eigenvalues --    0.13547   0.13585   0.13844   0.13943   0.14068
  Beta virt. eigenvalues --    0.14789   0.14873   0.15184   0.15425   0.16008
  Beta virt. eigenvalues --    0.16214   0.16576   0.16822   0.16848   0.17478
  Beta virt. eigenvalues --    0.17663   0.17868   0.18002   0.18481   0.18743
  Beta virt. eigenvalues --    0.19035   0.19639   0.20006   0.20155   0.20514
  Beta virt. eigenvalues --    0.20738   0.20800   0.21066   0.21277   0.21446
  Beta virt. eigenvalues --    0.21709   0.22009   0.22587   0.22985   0.23266
  Beta virt. eigenvalues --    0.24212   0.24432   0.24810   0.25047   0.25467
  Beta virt. eigenvalues --    0.25675   0.26137   0.26602   0.27454   0.27871
  Beta virt. eigenvalues --    0.28762   0.29918   0.30732   0.31091   0.31544
  Beta virt. eigenvalues --    0.31795   0.34456   0.35623   0.35895   0.36774
  Beta virt. eigenvalues --    0.37816   0.38701   0.39416   0.39761   0.40414
  Beta virt. eigenvalues --    0.40587   0.40824   0.41258   0.41511   0.42483
  Beta virt. eigenvalues --    0.43056   0.43341   0.43625   0.44055   0.44822
  Beta virt. eigenvalues --    0.45447   0.45701   0.46377   0.46821   0.47758
  Beta virt. eigenvalues --    0.48447   0.49013   0.49366   0.49949   0.51415
  Beta virt. eigenvalues --    0.51764   0.52444   0.52765   0.53228   0.53378
  Beta virt. eigenvalues --    0.53984   0.54118   0.54470   0.55402   0.56267
  Beta virt. eigenvalues --    0.56529   0.57378   0.58058   0.58157   0.58470
  Beta virt. eigenvalues --    0.58972   0.59384   0.59643   0.60011   0.60442
  Beta virt. eigenvalues --    0.61132   0.61291   0.62003   0.62555   0.62920
  Beta virt. eigenvalues --    0.62976   0.63286   0.63609   0.63745   0.64449
  Beta virt. eigenvalues --    0.64542   0.64776   0.65032   0.65293   0.65555
  Beta virt. eigenvalues --    0.65744   0.65933   0.66113   0.66337   0.66772
  Beta virt. eigenvalues --    0.66889   0.67135   0.67580   0.67805   0.67926
  Beta virt. eigenvalues --    0.68284   0.68433   0.68665   0.68809   0.69142
  Beta virt. eigenvalues --    0.69255   0.69374   0.69770   0.70422   0.70496
  Beta virt. eigenvalues --    0.70722   0.70810   0.71055   0.71272   0.71414
  Beta virt. eigenvalues --    0.72186   0.72405   0.72552   0.72786   0.72990
  Beta virt. eigenvalues --    0.73223   0.73424   0.73508   0.73864   0.74323
  Beta virt. eigenvalues --    0.74605   0.74749   0.75152   0.75615   0.75895
  Beta virt. eigenvalues --    0.76210   0.76634   0.76949   0.77487   0.77580
  Beta virt. eigenvalues --    0.78104   0.78441   0.78679   0.78955   0.79240
  Beta virt. eigenvalues --    0.79887   0.80489   0.80577   0.81040   0.81558
  Beta virt. eigenvalues --    0.81729   0.82040   0.82411   0.83098   0.83412
  Beta virt. eigenvalues --    0.84302   0.84787   0.85208   0.85817   0.86406
  Beta virt. eigenvalues --    0.87257   0.87726   0.88493   0.88731   0.89522
  Beta virt. eigenvalues --    0.89876   0.90458   0.91279   0.91723   0.92816
  Beta virt. eigenvalues --    0.94167   0.94875   0.95702   0.95976   0.97701
  Beta virt. eigenvalues --    0.99176   1.00017   1.01765   1.01992   1.02689
  Beta virt. eigenvalues --    1.03357   1.03702   1.04761   1.05185   1.05886
  Beta virt. eigenvalues --    1.06826   1.06934   1.07542   1.08324   1.08516
  Beta virt. eigenvalues --    1.09601   1.10938   1.11597   1.12235   1.12954
  Beta virt. eigenvalues --    1.13585   1.14670   1.15911   1.16388   1.16525
  Beta virt. eigenvalues --    1.17276   1.17982   1.18778   1.19261   1.19875
  Beta virt. eigenvalues --    1.20703   1.21259   1.22129   1.23110   1.24044
  Beta virt. eigenvalues --    1.24487   1.24568   1.24978   1.25758   1.26458
  Beta virt. eigenvalues --    1.27122   1.28180   1.28299   1.29475   1.30223
  Beta virt. eigenvalues --    1.30881   1.31331   1.31881   1.33121   1.34364
  Beta virt. eigenvalues --    1.36775   1.37314   1.37934   1.39335   1.40808
  Beta virt. eigenvalues --    1.42459   1.44007   1.45075   1.48023   1.48281
  Beta virt. eigenvalues --    1.49297   1.49566   1.50472   1.51198   1.51856
  Beta virt. eigenvalues --    1.52129   1.53035   1.53456   1.54110   1.54247
  Beta virt. eigenvalues --    1.54764   1.55362   1.55724   1.56197   1.56646
  Beta virt. eigenvalues --    1.56969   1.57655   1.57821   1.58393   1.58493
  Beta virt. eigenvalues --    1.58727   1.59251   1.59342   1.59960   1.60709
  Beta virt. eigenvalues --    1.60943   1.61251   1.62395   1.62545   1.63548
  Beta virt. eigenvalues --    1.63656   1.64580   1.65188   1.65524   1.65860
  Beta virt. eigenvalues --    1.65968   1.66368   1.67785   1.68399   1.68859
  Beta virt. eigenvalues --    1.69422   1.70592   1.70804   1.72210   1.72599
  Beta virt. eigenvalues --    1.73818   1.74528   1.76114   1.76556   1.76878
  Beta virt. eigenvalues --    1.77115   1.77317   1.77971   1.78462   1.78822
  Beta virt. eigenvalues --    1.78951   1.79289   1.79472   1.80094   1.80307
  Beta virt. eigenvalues --    1.80859   1.81205   1.81538   1.81944   1.82233
  Beta virt. eigenvalues --    1.82655   1.83633   1.83846   1.84294   1.84392
  Beta virt. eigenvalues --    1.84531   1.85215   1.85397   1.85684   1.86053
  Beta virt. eigenvalues --    1.86255   1.86977   1.87356   1.87888   1.88317
  Beta virt. eigenvalues --    1.89353   1.90206   1.90702   1.91150   1.91385
  Beta virt. eigenvalues --    1.91789   1.92507   1.92706   1.93009   1.93383
  Beta virt. eigenvalues --    1.93599   1.93848   1.94108   1.94169   1.94573
  Beta virt. eigenvalues --    1.94902   1.95007   1.95708   1.95781   1.96303
  Beta virt. eigenvalues --    1.96827   1.96876   1.97800   1.98210   1.98716
  Beta virt. eigenvalues --    1.98923   1.99742   1.99918   2.00518   2.00844
  Beta virt. eigenvalues --    2.01174   2.01719   2.02403   2.02430   2.03571
  Beta virt. eigenvalues --    2.03719   2.04110   2.04356   2.05793   2.08291
  Beta virt. eigenvalues --    2.09056   2.09902   2.11425   2.12220   2.14987
  Beta virt. eigenvalues --    2.15712   2.16035   2.16620   2.16799   2.17566
  Beta virt. eigenvalues --    2.17727   2.18230   2.18497   2.18888   2.19057
  Beta virt. eigenvalues --    2.19631   2.19942   2.20342   2.20714   2.21351
  Beta virt. eigenvalues --    2.22155   2.22578   2.22658   2.23159   2.24009
  Beta virt. eigenvalues --    2.24196   2.24826   2.25007   2.27124   2.27848
  Beta virt. eigenvalues --    2.29465   2.29657   2.30261   2.34889   2.37922
  Beta virt. eigenvalues --    2.38346   2.38793   2.39161   2.39853   2.40470
  Beta virt. eigenvalues --    2.40742   2.41237   2.41993   2.42098   2.42346
  Beta virt. eigenvalues --    2.42875   2.43141   2.44313   2.44794   2.45775
  Beta virt. eigenvalues --    2.46895   2.47002   2.47544   2.48856   2.50134
  Beta virt. eigenvalues --    2.51151   2.52092   2.55157   2.55467   2.55867
  Beta virt. eigenvalues --    2.56175   2.56327   2.56393   2.56570   2.57392
  Beta virt. eigenvalues --    2.58128   2.61227   2.61924   2.62277   2.62700
  Beta virt. eigenvalues --    2.62836   2.63361   2.63581   2.63759   2.63913
  Beta virt. eigenvalues --    2.64116   2.64309   2.64753   2.65158   2.65662
  Beta virt. eigenvalues --    2.65911   2.67334   2.69127   2.72109   2.72499
  Beta virt. eigenvalues --    2.72884   2.73182   2.73771   2.74127   2.75149
  Beta virt. eigenvalues --    2.75706   2.78638   2.80444   2.81613   2.84062
  Beta virt. eigenvalues --    2.86115   2.87022   2.87386   2.87637   2.88357
  Beta virt. eigenvalues --    2.88798   2.89063   2.89182   2.89693   2.90793
  Beta virt. eigenvalues --    2.91233   2.92801   2.92972   2.93511   2.94308
  Beta virt. eigenvalues --    2.94848   2.95676   2.95779   2.96241   2.96531
  Beta virt. eigenvalues --    2.96896   2.97150   2.97471   2.98124   2.98809
  Beta virt. eigenvalues --    2.99610   2.99896   3.02014   3.02262   3.03922
  Beta virt. eigenvalues --    3.04991   3.05973   3.06110   3.06665   3.06978
  Beta virt. eigenvalues --    3.07642   3.08488   3.08804   3.09510   3.09893
  Beta virt. eigenvalues --    3.11047   3.11934   3.12429   3.14279   3.18416
  Beta virt. eigenvalues --    3.19591   3.36462   3.61917   3.72535   3.79597
  Beta virt. eigenvalues --    3.86933  45.11046
          Condensed to atoms (all electrons):
          Atomic-Atomic Spin Densities.
 Mulliken charges and spin densities:
               1          2
     1  P    0.275766   0.064310
     2  N   -0.122743   0.086329
     3  C    0.020561   0.003590
     4  H    0.066651  -0.000563
     5  H    0.095067  -0.000110
     6  O   -0.543161   0.001016
     7  P    0.278359   0.071644
     8  C   -0.043757  -0.006841
     9  C    0.000759   0.007072
    10  H    0.012419   0.001160
    11  C    0.068677  -0.006321
    12  H    0.024908   0.000202
    13  C   -0.002423   0.007084
    14  H    0.011955   0.001204
    15  C   -0.033717  -0.006828
    16  C    0.013458   0.004737
    17  H    0.068761  -0.000520
    18  H    0.096128  -0.000246
    19  Ru   0.002501   1.764776
    20  H    0.177789   0.001343
    21  C   -0.382675   0.003526
    22  C   -0.390948   0.009581
    23  C   -0.389158   0.012700
    24  C   -0.395724   0.001101
    25  C    0.072499  -0.000463
    26  H    0.026497   0.000052
    27  H    0.042415   0.001301
    28  H    0.019477  -0.000109
    29  C    0.083098   0.000307
    30  H    0.015622  -0.000056
    31  H    0.032397   0.001393
    32  H    0.012932  -0.000015
    33  C    0.077454   0.000448
    34  H    0.015437   0.001012
    35  H    0.038358   0.000001
    36  H    0.027806   0.000022
    37  C    0.079922   0.001411
    38  H    0.013694  -0.000015
    39  H    0.018386   0.002428
    40  H    0.026559  -0.000055
    41  C    0.073119   0.000059
    42  H    0.017062   0.000189
    43  H    0.037345   0.000013
    44  H    0.038960   0.001013
    45  C    0.056845   0.000766
    46  H    0.027346  -0.000627
    47  H    0.036211   0.000134
    48  H    0.021234  -0.000126
    49  C    0.075070   0.000187
    50  H    0.008011  -0.000112
    51  H    0.017267  -0.000039
    52  H    0.006041   0.000012
    53  C    0.078485   0.001184
    54  H    0.013098   0.001338
    55  H    0.035095  -0.000023
    56  H    0.027698  -0.000066
    57  C    0.070438  -0.000557
    58  H    0.024470   0.000026
    59  H    0.026975   0.000506
    60  H    0.013684  -0.000001
    61  C    0.075775  -0.000070
    62  H    0.044212   0.001177
    63  H    0.023236   0.000021
    64  H    0.015377  -0.000230
    65  C    0.080362   0.001163
    66  H    0.011594   0.000033
    67  H    0.016214   0.002170
    68  H    0.024170  -0.000058
    69  C    0.069956  -0.000079
    70  H    0.014837   0.000051
    71  H    0.038211   0.000046
    72  H    0.040472   0.001258
    73  O   -0.739038   0.095629
    74  C    0.058604  -0.093643
    75  H    0.152010   0.001552
    76  O   -0.142452  -0.040505
 Sum of Mulliken charges =  -0.00000   2.00000
 Mulliken charges and spin densities with hydrogens summed into heavy atoms:
               1          2
     1  P    0.275766   0.064310
     2  N   -0.122743   0.086329
     3  C    0.182279   0.002917
     6  O   -0.365372   0.002359
     7  P    0.278359   0.071644
     8  C   -0.043757  -0.006841
     9  C    0.013178   0.008232
    11  C    0.093585  -0.006120
    13  C    0.009532   0.008288
    15  C   -0.033717  -0.006828
    16  C    0.178347   0.003970
    19  Ru   0.002501   1.764776
    21  C   -0.382675   0.003526
    22  C   -0.390948   0.009581
    23  C   -0.389158   0.012700
    24  C   -0.395724   0.001101
    25  C    0.160888   0.000781
    29  C    0.144049   0.001630
    33  C    0.159055   0.001483
    37  C    0.138561   0.003770
    41  C    0.166486   0.001273
    45  C    0.141635   0.000147
    49  C    0.106389   0.000048
    53  C    0.154376   0.002433
    57  C    0.135567  -0.000025
    61  C    0.158600   0.000898
    65  C    0.132340   0.003308
    69  C    0.163476   0.001276
    73  O   -0.587028   0.097181
    74  C    0.058604  -0.093643
    76  O   -0.142452  -0.040505
 Electronic spatial extent (au):  <R**2>=          13977.5878
 Charge=             -0.0000 electrons
 Dipole moment (field-independent basis, Debye):
    X=              2.1560    Y=             19.9135    Z=              0.4430  Tot=             20.0348
 Quadrupole moment (field-independent basis, Debye-Ang):
   XX=           -165.5664   YY=           -252.1461   ZZ=           -229.1273
   XY=             -1.9135   XZ=            -12.0864   YZ=              2.9202
 Traceless Quadrupole moment (field-independent basis, Debye-Ang):
   XX=             50.0469   YY=            -36.5328   ZZ=            -13.5141
   XY=             -1.9135   XZ=            -12.0864   YZ=              2.9202
 Octapole moment (field-independent basis, Debye-Ang**2):
  XXX=             15.5591  YYY=            272.7158  ZZZ=            -16.1107  XYY=              3.5186
  XXY=            -10.2490  XXZ=             -2.0565  XZZ=             14.6769  YZZ=             -7.9183
  YYZ=            -10.7332  XYZ=              6.1354
 Hexadecapole moment (field-independent basis, Debye-Ang**3):
 XXXX=         -10310.6047 YYYY=          -5078.8957 ZZZZ=          -3400.1101 XXXY=            -11.5033
 XXXZ=            -66.7228 YYYX=              8.7065 YYYZ=             48.9022 ZZZX=            -43.5796
 ZZZY=             40.6055 XXYY=          -2503.4970 XXZZ=          -2260.8564 YYZZ=          -1330.8783
 XXYZ=              4.0763 YYXZ=            -80.2382 ZZXY=            -16.0171
 N-N= 4.422225654554D+03 E-N=-1.349626201282D+04  KE= 1.921242770027D+03
                          Isotropic Fermi Contact Couplings
        Atom                 a.u.       MegaHertz       Gauss      10(-4) cm-1
     1  P(31)              0.07585      68.68707      24.50926      22.91154
     2  N(14)              0.19769      31.93805      11.39629      10.65339
     3  C(13)             -0.00442      -2.48622      -0.88715      -0.82932
     4  H(1)              -0.00013      -0.29171      -0.10409      -0.09730
     5  H(1)              -0.00009      -0.20036      -0.07149      -0.06683
     6  O(17)              0.00770      -2.33251      -0.83230      -0.77804
     7  P(31)              0.08084      73.20513      26.12141      24.41860
     8  C(13)             -0.00535      -3.00697      -1.07296      -1.00302
     9  C(13)              0.00703       3.95062       1.40968       1.31779
    10  H(1)               0.00026       0.57544       0.20533       0.19194
    11  C(13)             -0.00137      -0.76965      -0.27463      -0.25673
    12  H(1)               0.00008       0.17412       0.06213       0.05808
    13  C(13)              0.00704       3.95867       1.41255       1.32047
    14  H(1)               0.00026       0.58775       0.20972       0.19605
    15  C(13)             -0.00558      -3.13866      -1.11995      -1.04694
    16  C(13)             -0.00433      -2.43424      -0.86860      -0.81197
    17  H(1)              -0.00012      -0.26030      -0.09288      -0.08683
    18  H(1)              -0.00016      -0.36358      -0.12973      -0.12128
    19  Ru(99)            -0.00000       0.00030       0.00011       0.00010
    20  H(1)               0.00091       2.03264       0.72529       0.67801
    21  C(13)              0.00380       2.13375       0.76138       0.71174
    22  C(13)              0.00912       5.12770       1.82969       1.71042
    23  C(13)              0.01213       6.81822       2.43291       2.27431
    24  C(13)              0.00191       1.07090       0.38212       0.35721
    25  C(13)             -0.00054      -0.30207      -0.10779      -0.10076
    26  H(1)               0.00000       0.00389       0.00139       0.00130
    27  H(1)               0.00002       0.05555       0.01982       0.01853
    28  H(1)              -0.00003      -0.07456      -0.02661      -0.02487
    29  C(13)              0.00131       0.73826       0.26343       0.24626
    30  H(1)              -0.00001      -0.01940      -0.00692      -0.00647
    31  H(1)              -0.00002      -0.04979      -0.01776      -0.01661
    32  H(1)              -0.00001      -0.01307      -0.00467      -0.00436
    33  C(13)              0.00142       0.80091       0.28579       0.26716
    34  H(1)               0.00034       0.76626       0.27342       0.25560
    35  H(1)               0.00001       0.02230       0.00796       0.00744
    36  H(1)               0.00003       0.06836       0.02439       0.02280
    37  C(13)              0.00287       1.61597       0.57662       0.53903
    38  H(1)               0.00003       0.06669       0.02380       0.02225
    39  H(1)               0.00088       1.96025       0.69946       0.65387
    40  H(1)               0.00001       0.02596       0.00926       0.00866
    41  C(13)             -0.00042      -0.23726      -0.08466      -0.07914
    42  H(1)               0.00005       0.12138       0.04331       0.04049
    43  H(1)               0.00000       0.00538       0.00192       0.00179
    44  H(1)              -0.00002      -0.05490      -0.01959      -0.01831
    45  C(13)             -0.00003      -0.01894      -0.00676      -0.00632
    46  H(1)               0.00001       0.01534       0.00547       0.00512
    47  H(1)               0.00006       0.12452       0.04443       0.04153
    48  H(1)              -0.00003      -0.06837      -0.02439      -0.02280
    49  C(13)             -0.00008      -0.04700      -0.01677      -0.01568
    50  H(1)              -0.00003      -0.06027      -0.02151      -0.02011
    51  H(1)               0.00001       0.01346       0.00480       0.00449
    52  H(1)               0.00001       0.02692       0.00961       0.00898
    53  C(13)              0.00283       1.59261       0.56828       0.53124
    54  H(1)               0.00042       0.94829       0.33837       0.31631
    55  H(1)               0.00000       0.00532       0.00190       0.00177
    56  H(1)              -0.00001      -0.01125      -0.00401      -0.00375
    57  C(13)             -0.00067      -0.37453      -0.13364      -0.12493
    58  H(1)              -0.00001      -0.02924      -0.01043      -0.00975
    59  H(1)               0.00005       0.12126       0.04327       0.04045
    60  H(1)               0.00001       0.01628       0.00581       0.00543
    61  C(13)              0.00117       0.65767       0.23467       0.21937
    62  H(1)              -0.00002      -0.04930      -0.01759      -0.01644
    63  H(1)               0.00001       0.01464       0.00522       0.00488
    64  H(1)              -0.00008      -0.16875      -0.06021      -0.05629
    65  C(13)              0.00253       1.42376       0.50803       0.47491
    66  H(1)               0.00004       0.09906       0.03535       0.03304
    67  H(1)               0.00081       1.80472       0.64397       0.60199
    68  H(1)               0.00001       0.02159       0.00770       0.00720
    69  C(13)             -0.00031      -0.17297      -0.06172      -0.05770
    70  H(1)               0.00002       0.04463       0.01593       0.01489
    71  H(1)               0.00002       0.03496       0.01247       0.01166
    72  H(1)              -0.00003      -0.06540      -0.02334      -0.02182
    73  O(17)              0.07134     -21.62222      -7.71534      -7.21239
    74  C(13)             -0.05506     -30.94689     -11.04262     -10.32277
    75  H(1)              -0.00120      -2.68989      -0.95982      -0.89725
    76  O(17)             -0.01504       4.55894       1.62674       1.52070
 --------------------------------------------------------
       Center         ----  Spin Dipole Couplings  ----
                      3XX-RR        3YY-RR        3ZZ-RR
 --------------------------------------------------------
     1   Atom        0.056963      0.010237     -0.067200
     2   Atom       -0.129539      0.239320     -0.109781
     3   Atom        0.003112      0.006660     -0.009772
     4   Atom        0.001713      0.001492     -0.003206
     5   Atom       -0.000493      0.000049      0.000443
     6   Atom        0.034964     -0.008335     -0.026628
     7   Atom        0.063573      0.016542     -0.080114
     8   Atom        0.004039      0.011730     -0.015769
     9   Atom       -0.005403      0.008639     -0.003236
    10   Atom       -0.000727      0.002532     -0.001804
    11   Atom       -0.000941      0.007294     -0.006353
    12   Atom       -0.000859      0.002064     -0.001206
    13   Atom       -0.005500      0.008655     -0.003155
    14   Atom       -0.000826      0.002564     -0.001737
    15   Atom        0.001305      0.011972     -0.013277
    16   Atom        0.002236      0.007196     -0.009432
    17   Atom        0.001657      0.001603     -0.003260
    18   Atom       -0.000751     -0.000018      0.000770
    19   Atom        0.177855      0.364180     -0.542035
    20   Atom       -0.011533     -0.011869      0.023402
    21   Atom        0.004335     -0.004308     -0.000027
    22   Atom        0.012009     -0.008842     -0.003166
    23   Atom        0.015529     -0.009663     -0.005867
    24   Atom        0.003758     -0.003180     -0.000577
    25   Atom       -0.000233     -0.000158      0.000391
    26   Atom       -0.000267      0.001909     -0.001641
    27   Atom       -0.003741     -0.000743      0.004483
    28   Atom       -0.000432     -0.000546      0.000978
    29   Atom        0.002782     -0.003879      0.001096
    30   Atom        0.000313     -0.001942      0.001629
    31   Atom        0.000472     -0.004951      0.004479
    32   Atom        0.002888     -0.002370     -0.000519
    33   Atom        0.003675     -0.001303     -0.002372
    34   Atom        0.001180     -0.000727     -0.000454
    35   Atom        0.002958     -0.001453     -0.001505
    36   Atom        0.001794     -0.000012     -0.001782
    37   Atom        0.005046     -0.003557     -0.001490
    38   Atom        0.003181     -0.001348     -0.001833
    39   Atom        0.002113     -0.001197     -0.000915
    40   Atom        0.001729     -0.001336     -0.000393
    41   Atom        0.005462     -0.001703     -0.003758
    42   Atom        0.003009     -0.000981     -0.002028
    43   Atom        0.004200     -0.002027     -0.002173
    44   Atom        0.006597     -0.001467     -0.005131
    45   Atom        0.002534     -0.004655      0.002120
    46   Atom        0.002469     -0.003513      0.001044
    47   Atom        0.000505     -0.004958      0.004453
    48   Atom        0.001424     -0.001954      0.000530
    49   Atom        0.002692     -0.004046      0.001354
    50   Atom        0.000929     -0.002171      0.001242
    51   Atom        0.001217     -0.006403      0.005186
    52   Atom        0.003690     -0.002763     -0.000927
    53   Atom        0.005221     -0.001918     -0.003303
    54   Atom        0.001369     -0.000916     -0.000452
    55   Atom        0.003294     -0.001633     -0.001661
    56   Atom        0.001947     -0.000116     -0.001830
    57   Atom       -0.000034     -0.000011      0.000045
    58   Atom       -0.000158      0.001994     -0.001835
    59   Atom       -0.003867      0.000214      0.003653
    60   Atom       -0.000295     -0.000507      0.000802
    61   Atom        0.001438     -0.004341      0.002903
    62   Atom        0.000615     -0.003987      0.003372
    63   Atom       -0.001118     -0.003984      0.005102
    64   Atom        0.000879     -0.001902      0.001022
    65   Atom        0.004642     -0.003284     -0.001358
    66   Atom        0.003112     -0.001401     -0.001711
    67   Atom        0.001883     -0.001159     -0.000724
    68   Atom        0.001494     -0.001195     -0.000299
    69   Atom        0.005630     -0.001803     -0.003827
    70   Atom        0.002857     -0.001010     -0.001847
    71   Atom        0.004364     -0.002019     -0.002345
    72   Atom        0.006771     -0.001340     -0.005431
    73   Atom       -0.059313      0.270877     -0.211564
    74   Atom       -0.038969     -0.053400      0.092369
    75   Atom       -0.019579      0.005376      0.014203
    76   Atom       -0.034048     -0.073254      0.107302
 --------------------------------------------------------
                        XY            XZ            YZ
 --------------------------------------------------------
     1   Atom        0.115263     -0.029717     -0.032962
     2   Atom        0.005804      0.012148      0.004953
     3   Atom        0.002603     -0.003859     -0.001344
     4   Atom        0.004021     -0.001808     -0.001717
     5   Atom        0.004770     -0.005690     -0.006116
     6   Atom        0.030909     -0.001766     -0.002131
     7   Atom       -0.128436     -0.030866      0.030106
     8   Atom        0.012245     -0.009387     -0.004290
     9   Atom        0.002076      0.001607     -0.000853
    10   Atom        0.002103     -0.000575     -0.000966
    11   Atom        0.000160     -0.003442      0.000248
    12   Atom        0.000061     -0.000180      0.000097
    13   Atom       -0.001813      0.001557      0.000835
    14   Atom       -0.001978     -0.000612      0.001135
    15   Atom       -0.010995     -0.011620      0.006989
    16   Atom       -0.002013     -0.004008      0.001829
    17   Atom       -0.004021     -0.001798      0.001789
    18   Atom       -0.004079     -0.005373      0.006085
    19   Atom        0.000598     -0.007003      0.073725
    20   Atom       -0.002788     -0.011163      0.006289
    21   Atom       -0.006985      0.009658     -0.005989
    22   Atom        0.006819     -0.015336     -0.005783
    23   Atom       -0.009623     -0.016466      0.007025
    24   Atom        0.005456      0.007515      0.004521
    25   Atom        0.003341      0.004075      0.004167
    26   Atom        0.003410      0.002358      0.003103
    27   Atom        0.002955      0.005569      0.008198
    28   Atom        0.001451      0.002303      0.002312
    29   Atom        0.000736      0.006078      0.000475
    30   Atom        0.000428      0.003093      0.000520
    31   Atom       -0.000499      0.008719     -0.001458
    32   Atom       -0.000512      0.003490     -0.000384
    33   Atom        0.003090      0.001917      0.000935
    34   Atom        0.001323      0.001422      0.000799
    35   Atom        0.001149      0.001096      0.000405
    36   Atom        0.002503      0.000694      0.000436
    37   Atom        0.002897     -0.005146     -0.001743
    38   Atom        0.001703     -0.000906     -0.000047
    39   Atom       -0.000005     -0.001942      0.000100
    40   Atom        0.001454     -0.002635     -0.001406
    41   Atom       -0.002311     -0.000750     -0.000473
    42   Atom       -0.002023     -0.001082      0.000328
    43   Atom       -0.001145      0.000904     -0.000270
    44   Atom       -0.005351      0.000980     -0.000680
    45   Atom       -0.001843     -0.007455      0.001260
    46   Atom       -0.005851     -0.010040      0.006539
    47   Atom        0.000153     -0.006722     -0.000099
    48   Atom       -0.001251     -0.003518      0.001413
    49   Atom       -0.000314      0.006019     -0.000068
    50   Atom       -0.000452      0.003297     -0.000341
    51   Atom        0.000833      0.009403      0.001288
    52   Atom        0.001023      0.004001      0.000775
    53   Atom       -0.003918      0.002015     -0.000905
    54   Atom       -0.001408      0.001485     -0.000802
    55   Atom       -0.000966      0.000993     -0.000372
    56   Atom       -0.002613      0.000609     -0.000278
    57   Atom       -0.003770      0.004149     -0.004188
    58   Atom       -0.003571      0.002279     -0.002971
    59   Atom       -0.003932      0.005631     -0.008021
    60   Atom       -0.001758      0.002380     -0.002366
    61   Atom        0.001326     -0.007603     -0.001270
    62   Atom        0.003903     -0.009893     -0.006093
    63   Atom       -0.000244     -0.005925      0.000444
    64   Atom        0.000868     -0.003393     -0.001217
    65   Atom       -0.002627     -0.004859      0.001564
    66   Atom       -0.001594     -0.001025      0.000096
    67   Atom       -0.000045     -0.001965     -0.000081
    68   Atom       -0.001396     -0.002617      0.001385
    69   Atom        0.002148     -0.001447      0.000025
    70   Atom        0.001903     -0.001441     -0.000472
    71   Atom        0.001275      0.000529      0.000215
    72   Atom        0.005663     -0.000170      0.000138
    73   Atom        0.009961     -0.009592      0.025986
    74   Atom       -0.002747      0.005395     -0.003986
    75   Atom        0.000411      0.002087      0.011549
    76   Atom       -0.001377      0.007494     -0.004815
 --------------------------------------------------------


 ---------------------------------------------------------------------------------
              Anisotropic Spin Dipole Couplings in Principal Axis System
 ---------------------------------------------------------------------------------

       Atom             a.u.   MegaHertz   Gauss  10(-4) cm-1        Axes

              Baa    -0.0876   -18.946    -6.761    -6.320 -0.4870  0.7333  0.4745
     1 P(31)  Bbb    -0.0721   -15.577    -5.558    -5.196  0.4361 -0.2666  0.8595
              Bcc     0.1597    34.524    12.319    11.516  0.7567  0.6255 -0.1900
 
              Baa    -0.1353    -5.220    -1.863    -1.741  0.9038 -0.0083 -0.4279
     2 N(14)  Bbb    -0.1041    -4.017    -1.433    -1.340  0.4277 -0.0203  0.9037
              Bcc     0.2395     9.236     3.296     3.081  0.0162  0.9998  0.0147
 
              Baa    -0.0109    -1.457    -0.520    -0.486  0.2599  0.0354  0.9650
     3 C(13)  Bbb     0.0023     0.309     0.110     0.103  0.8130 -0.5472 -0.1989
              Bcc     0.0086     1.148     0.410     0.383  0.5210  0.8363 -0.1710
 
              Baa    -0.0039    -2.060    -0.735    -0.687  0.1964  0.1626  0.9669
     4 H(1)   Bbb    -0.0024    -1.290    -0.460    -0.430 -0.6928  0.7208  0.0195
              Bcc     0.0063     3.351     1.196     1.118  0.6938  0.6738 -0.2542
 
              Baa    -0.0061    -3.258    -1.162    -1.087  0.3900  0.4791  0.7863
     5 H(1)   Bbb    -0.0050    -2.666    -0.951    -0.889  0.7467 -0.6642  0.0343
              Bcc     0.0111     5.924     2.114     1.976 -0.5388 -0.5738  0.6168
 
              Baa    -0.0271     1.964     0.701     0.655 -0.1431  0.3406  0.9293
     6 O(17)  Bbb    -0.0240     1.736     0.620     0.579 -0.4403  0.8190 -0.3679
              Bcc     0.0511    -3.700    -1.320    -1.234  0.8864  0.4619 -0.0328
 
              Baa    -0.0926   -20.016    -7.142    -6.677  0.4774  0.7061 -0.5229
     7 P(31)  Bbb    -0.0852   -18.420    -6.573    -6.144  0.4472  0.3170  0.8364
              Bcc     0.1778    38.436    13.715    12.821  0.7564 -0.6331 -0.1644
 
              Baa    -0.0195    -2.620    -0.935    -0.874  0.3798 -0.0219  0.9248
     8 C(13)  Bbb    -0.0033    -0.449    -0.160    -0.150  0.6964 -0.6513 -0.3014
              Bcc     0.0229     3.069     1.095     1.024  0.6089  0.7585 -0.2321
 
              Baa    -0.0066    -0.884    -0.315    -0.295  0.8771 -0.1453 -0.4578
     9 C(13)  Bbb    -0.0024    -0.320    -0.114    -0.107  0.4603 -0.0180  0.8876
              Bcc     0.0090     1.204     0.430     0.402  0.1372  0.9892 -0.0511
 
              Baa    -0.0021    -1.097    -0.391    -0.366  0.3405  0.0418  0.9393
    10 H(1)   Bbb    -0.0017    -0.924    -0.330    -0.308  0.8339 -0.4750 -0.2811
              Bcc     0.0038     2.021     0.721     0.674  0.4344  0.8790 -0.1966
 
              Baa    -0.0080    -1.078    -0.385    -0.359  0.4370 -0.0191  0.8993
    11 C(13)  Bbb     0.0007     0.098     0.035     0.033  0.8994 -0.0055 -0.4371
              Bcc     0.0073     0.980     0.350     0.327  0.0133  0.9998  0.0148
 
              Baa    -0.0013    -0.686    -0.245    -0.229  0.3923 -0.0338  0.9192
    12 H(1)   Bbb    -0.0008    -0.417    -0.149    -0.139  0.9196 -0.0065 -0.3928
              Bcc     0.0021     1.103     0.394     0.368  0.0192  0.9994  0.0286
 
              Baa    -0.0065    -0.877    -0.313    -0.293  0.8881  0.1302 -0.4409
    13 C(13)  Bbb    -0.0024    -0.319    -0.114    -0.106  0.4440  0.0052  0.8960
              Bcc     0.0089     1.197     0.427     0.399 -0.1189  0.9915  0.0532
 
              Baa    -0.0021    -1.098    -0.392    -0.366  0.3090 -0.1001  0.9458
    14 H(1)   Bbb    -0.0017    -0.916    -0.327    -0.306  0.8581  0.4581 -0.2319
              Bcc     0.0038     2.014     0.719     0.672 -0.4100  0.8833  0.2274
 
              Baa    -0.0197    -2.647    -0.945    -0.883  0.4708 -0.0311  0.8817
    15 C(13)  Bbb    -0.0033    -0.444    -0.158    -0.148  0.6819  0.6469 -0.3414
              Bcc     0.0230     3.091     1.103     1.031 -0.5597  0.7620  0.3258
 
              Baa    -0.0108    -1.443    -0.515    -0.481  0.2849 -0.0655  0.9563
    16 C(13)  Bbb     0.0023     0.305     0.109     0.102  0.8684  0.4399 -0.2286
              Bcc     0.0085     1.138     0.406     0.380 -0.4057  0.8956  0.1823
 
              Baa    -0.0039    -2.098    -0.749    -0.700  0.1803 -0.1815  0.9667
    17 H(1)   Bbb    -0.0024    -1.276    -0.455    -0.426  0.7051  0.7091  0.0016
              Bcc     0.0063     3.373     1.204     1.125  0.6858 -0.6813 -0.2559
 
              Baa    -0.0060    -3.210    -1.145    -1.071  0.3795 -0.5190  0.7659
    18 H(1)   Bbb    -0.0045    -2.387    -0.852    -0.796  0.7697  0.6365  0.0500
              Bcc     0.0105     5.597     1.997     1.867 -0.5134  0.5705  0.6410
 
              Baa    -0.5481    13.429     4.792     4.480  0.0097 -0.0806  0.9967
    19 Ru(99) Bbb     0.1779    -4.360    -1.556    -1.454  1.0000  0.0006 -0.0097
              Bcc     0.3701    -9.070    -3.236    -3.025  0.0002  0.9967  0.0806
 
              Baa    -0.0152    -8.096    -2.889    -2.701  0.9021  0.3831  0.1986
    20 H(1)   Bbb    -0.0127    -6.755    -2.411    -2.253 -0.3284  0.9080 -0.2600
              Bcc     0.0278    14.852     5.300     4.954 -0.2799  0.1693  0.9450
 
              Baa    -0.0085    -1.146    -0.409    -0.382  0.0851  0.8578  0.5069
    21 C(13)  Bbb    -0.0076    -1.026    -0.366    -0.342  0.6998  0.3106 -0.6432
              Bcc     0.0162     2.171     0.775     0.724  0.7092 -0.4095  0.5739
 
              Baa    -0.0134    -1.802    -0.643    -0.601  0.3524  0.4852  0.8002
    22 C(13)  Bbb    -0.0105    -1.408    -0.503    -0.470 -0.4598  0.8345 -0.3036
              Bcc     0.0239     3.210     1.145     1.071  0.8151  0.2609 -0.5172
 
              Baa    -0.0158    -2.115    -0.755    -0.705  0.2725 -0.5101  0.8158
    23 C(13)  Bbb    -0.0124    -1.664    -0.594    -0.555  0.4806  0.8067  0.3438
              Bcc     0.0282     3.779     1.348     1.260  0.8335 -0.2984 -0.4650
 
              Baa    -0.0066    -0.886    -0.316    -0.296  0.1292  0.7092 -0.6931
    24 C(13)  Bbb    -0.0060    -0.803    -0.287    -0.268  0.6769 -0.5739 -0.4610
              Bcc     0.0126     1.689     0.603     0.564  0.7246  0.4096  0.5542
 
              Baa    -0.0042    -0.567    -0.202    -0.189 -0.4095 -0.4670  0.7837
    25 C(13)  Bbb    -0.0035    -0.474    -0.169    -0.158  0.7278 -0.6852 -0.0281
              Bcc     0.0078     1.041     0.371     0.347  0.5502  0.5589  0.6205
 
              Baa    -0.0036    -1.898    -0.677    -0.633 -0.3257 -0.3049  0.8950
    26 H(1)   Bbb    -0.0028    -1.469    -0.524    -0.490  0.7812 -0.6200  0.0731
              Bcc     0.0063     3.366     1.201     1.123  0.5326  0.7229  0.4401
 
              Baa    -0.0073    -3.904    -1.393    -1.302 -0.5343 -0.5549  0.6376
    27 H(1)   Bbb    -0.0055    -2.941    -1.050    -0.981  0.7680 -0.6338  0.0919
              Bcc     0.0128     6.846     2.443     2.283  0.3531  0.5388  0.7648
 
              Baa    -0.0023    -1.227    -0.438    -0.409 -0.4083 -0.5858  0.7001
    28 H(1)   Bbb    -0.0019    -1.032    -0.368    -0.344  0.7615 -0.6415 -0.0927
              Bcc     0.0042     2.259     0.806     0.753  0.5034  0.4953  0.7080
 
              Baa    -0.0042    -0.570    -0.203    -0.190 -0.6282  0.3763  0.6810
    29 C(13)  Bbb    -0.0039    -0.522    -0.186    -0.174  0.1972  0.9237 -0.3284
              Bcc     0.0081     1.092     0.390     0.364  0.7526  0.0720  0.6545
 
              Baa    -0.0022    -1.169    -0.417    -0.390  0.7790 -0.0328 -0.6262
    30 H(1)   Bbb    -0.0020    -1.076    -0.384    -0.359 -0.0429  0.9935 -0.1053
              Bcc     0.0042     2.245     0.801     0.749  0.6256  0.1089  0.7725
 
              Baa    -0.0066    -3.543    -1.264    -1.182  0.7272 -0.3125 -0.6112
    31 H(1)   Bbb    -0.0049    -2.619    -0.935    -0.874  0.2977  0.9458 -0.1295
              Bcc     0.0115     6.162     2.199     2.056  0.6185 -0.0877  0.7808
 
              Baa    -0.0027    -1.445    -0.516    -0.482 -0.5074  0.1866  0.8412
    32 H(1)   Bbb    -0.0024    -1.288    -0.459    -0.430  0.1699  0.9788 -0.1146
              Bcc     0.0051     2.733     0.975     0.912  0.8448 -0.0848  0.5284
 
              Baa    -0.0029    -0.394    -0.141    -0.131 -0.1872 -0.1966  0.9624
    33 C(13)  Bbb    -0.0028    -0.373    -0.133    -0.124 -0.4522  0.8870  0.0932
              Bcc     0.0057     0.767     0.274     0.256  0.8720  0.4178  0.2550
 
              Baa    -0.0014    -0.762    -0.272    -0.254 -0.2644  0.8984 -0.3508
    34 H(1)   Bbb    -0.0013    -0.679    -0.242    -0.226 -0.5567  0.1548  0.8161
              Bcc     0.0027     1.441     0.514     0.481  0.7875  0.4111  0.4592
 
              Baa    -0.0019    -1.006    -0.359    -0.335 -0.0073 -0.6740  0.7387
    35 H(1)   Bbb    -0.0016    -0.866    -0.309    -0.289 -0.3274  0.6996  0.6351
              Bcc     0.0035     1.872     0.668     0.624  0.9449  0.2373  0.2258
 
              Baa    -0.0019    -1.023    -0.365    -0.341 -0.2732  0.1413  0.9515
    36 H(1)   Bbb    -0.0018    -0.938    -0.335    -0.313 -0.5190  0.8112 -0.2694
              Bcc     0.0037     1.961     0.700     0.654  0.8099  0.5675  0.1483
 
              Baa    -0.0046    -0.611    -0.218    -0.204  0.0301  0.8460  0.5323
    37 C(13)  Bbb    -0.0042    -0.570    -0.203    -0.190  0.5354 -0.4634  0.7061
              Bcc     0.0088     1.181     0.421     0.394  0.8441  0.2638 -0.4669
 
              Baa    -0.0022    -1.164    -0.415    -0.388  0.3149 -0.6007  0.7349
    38 H(1)   Bbb    -0.0017    -0.908    -0.324    -0.303 -0.1347  0.7381  0.6611
              Bcc     0.0039     2.072     0.739     0.691  0.9395  0.3072 -0.1515
 
              Baa    -0.0019    -1.000    -0.357    -0.334  0.4341 -0.1280  0.8917
    39 H(1)   Bbb    -0.0012    -0.633    -0.226    -0.211  0.0664  0.9917  0.1101
              Bcc     0.0031     1.634     0.583     0.545  0.8984 -0.0114 -0.4390
 
              Baa    -0.0024    -1.307    -0.466    -0.436  0.2635  0.6049  0.7514
    40 H(1)   Bbb    -0.0018    -0.947    -0.338    -0.316 -0.5820  0.7209 -0.3763
              Bcc     0.0042     2.254     0.804     0.752  0.7693  0.3382 -0.5420
 
              Baa    -0.0041    -0.544    -0.194    -0.182  0.1554  0.3390  0.9279
    41 C(13)  Bbb    -0.0021    -0.285    -0.102    -0.095  0.2375  0.8989 -0.3682
              Bcc     0.0062     0.829     0.296     0.276  0.9589 -0.2776 -0.0592
 
              Baa    -0.0023    -1.208    -0.431    -0.403  0.2581  0.1636  0.9522
    42 H(1)   Bbb    -0.0018    -0.959    -0.342    -0.320  0.3284  0.9120 -0.2457
              Bcc     0.0041     2.168     0.774     0.723  0.9086 -0.3761 -0.1817
 
              Baa    -0.0024    -1.270    -0.453    -0.424 -0.0075  0.5924  0.8056
    43 H(1)   Bbb    -0.0022    -1.150    -0.410    -0.383  0.2236  0.7862 -0.5760
              Bcc     0.0045     2.420     0.863     0.807  0.9747 -0.1758  0.1384
 
              Baa    -0.0053    -2.803    -1.000    -0.935 -0.0045  0.1705  0.9853
    44 H(1)   Bbb    -0.0041    -2.192    -0.782    -0.731  0.4530  0.8788 -0.1500
              Bcc     0.0094     4.995     1.782     1.666  0.8915 -0.4457  0.0812
 
              Baa    -0.0054    -0.730    -0.261    -0.244  0.6035  0.6289  0.4902
    45 C(13)  Bbb    -0.0047    -0.627    -0.224    -0.209 -0.3597  0.7634 -0.5365
              Bcc     0.0101     1.357     0.484     0.453  0.7116 -0.1474 -0.6870
 
              Baa    -0.0087    -4.658    -1.662    -1.554  0.4477 -0.4593  0.7672
    46 H(1)   Bbb    -0.0071    -3.763    -1.343    -1.255  0.6065  0.7865  0.1169
              Bcc     0.0158     8.422     3.005     2.809  0.6570 -0.4129 -0.6307
 
              Baa    -0.0050    -2.652    -0.946    -0.884 -0.1204  0.9899 -0.0754
    47 H(1)   Bbb    -0.0045    -2.410    -0.860    -0.804  0.7915  0.1416  0.5946
              Bcc     0.0095     5.062     1.806     1.688 -0.5993 -0.0119  0.8005
 
              Baa    -0.0027    -1.465    -0.523    -0.489  0.4060 -0.5957  0.6930
    48 H(1)   Bbb    -0.0023    -1.217    -0.434    -0.406  0.5636  0.7602  0.3233
              Bcc     0.0050     2.682     0.957     0.895  0.7194 -0.2593 -0.6444
 
              Baa    -0.0042    -0.564    -0.201    -0.188  0.4695  0.7279 -0.4997
    49 C(13)  Bbb    -0.0039    -0.521    -0.186    -0.174 -0.4737  0.6853  0.5532
              Bcc     0.0081     1.085     0.387     0.362  0.7451 -0.0230  0.6665
 
              Baa    -0.0023    -1.231    -0.439    -0.411  0.5484  0.7103 -0.4411
    50 H(1)   Bbb    -0.0021    -1.134    -0.405    -0.378 -0.4745  0.6988  0.5353
              Bcc     0.0044     2.365     0.844     0.789  0.6885 -0.0843  0.7203
 
              Baa    -0.0066    -3.542    -1.264    -1.182  0.4091  0.8132 -0.4139
    51 H(1)   Bbb    -0.0063    -3.357    -1.198    -1.120  0.6626 -0.5766 -0.4780
              Bcc     0.0129     6.900     2.462     2.301  0.6274  0.0786  0.7747
 
              Baa    -0.0033    -1.764    -0.629    -0.588 -0.4116 -0.3960  0.8209
    52 H(1)   Bbb    -0.0029    -1.534    -0.547    -0.512 -0.3126  0.9074  0.2810
              Bcc     0.0062     3.298     1.177     1.100  0.8561  0.1409  0.4972
 
              Baa    -0.0038    -0.504    -0.180    -0.168 -0.1357  0.1890  0.9725
    53 C(13)  Bbb    -0.0036    -0.489    -0.175    -0.163  0.4233  0.8986 -0.1156
              Bcc     0.0074     0.994     0.355     0.332  0.8958 -0.3960  0.2020
 
              Baa    -0.0016    -0.857    -0.306    -0.286  0.3250  0.9196  0.2207
    54 H(1)   Bbb    -0.0013    -0.685    -0.244    -0.228 -0.5007 -0.0307  0.8651
              Bcc     0.0029     1.542     0.550     0.514  0.8023 -0.3917  0.4504
 
              Baa    -0.0020    -1.078    -0.385    -0.360 -0.0166  0.6710  0.7413
    55 H(1)   Bbb    -0.0017    -0.886    -0.316    -0.296  0.2686  0.7171 -0.6431
              Bcc     0.0037     1.964     0.701     0.655  0.9631 -0.1885  0.1921
 
              Baa    -0.0020    -1.074    -0.383    -0.358 -0.4539 -0.5190  0.7243
    56 H(1)   Bbb    -0.0018    -0.954    -0.341    -0.318  0.3428  0.6486  0.6796
              Bcc     0.0038     2.028     0.724     0.677  0.8225 -0.5567  0.1165
 
              Baa    -0.0043    -0.575    -0.205    -0.192 -0.3963  0.4402  0.8057
    57 C(13)  Bbb    -0.0038    -0.509    -0.182    -0.170  0.7210  0.6926 -0.0237
              Bcc     0.0081     1.084     0.387     0.361  0.5685 -0.5715  0.5918
 
              Baa    -0.0036    -1.894    -0.676    -0.632 -0.3038  0.2906  0.9073
    58 H(1)   Bbb    -0.0028    -1.498    -0.535    -0.500  0.7817  0.6204  0.0631
              Bcc     0.0064     3.393     1.211     1.132 -0.5446  0.7285 -0.4157
 
              Baa    -0.0070    -3.710    -1.324    -1.237  0.7768 -0.2300 -0.5863
    59 H(1)   Bbb    -0.0060    -3.190    -1.138    -1.064  0.5039  0.7854  0.3595
              Bcc     0.0129     6.900     2.462     2.302  0.3778 -0.5746  0.7260
 
              Baa    -0.0023    -1.235    -0.441    -0.412 -0.1717  0.7171  0.6754
    60 H(1)   Bbb    -0.0021    -1.138    -0.406    -0.380  0.8309  0.4737 -0.2918
              Bcc     0.0044     2.373     0.847     0.792  0.5293 -0.5111  0.6772
 
              Baa    -0.0055    -0.736    -0.263    -0.246  0.7442 -0.1371  0.6538
    61 C(13)  Bbb    -0.0046    -0.611    -0.218    -0.204  0.0180  0.9825  0.1855
              Bcc     0.0100     1.347     0.481     0.449 -0.6677 -0.1263  0.7336
 
              Baa    -0.0085    -4.555    -1.625    -1.520  0.5591  0.4515  0.6954
    62 H(1)   Bbb    -0.0062    -3.302    -1.178    -1.102 -0.5719  0.8173 -0.0709
              Bcc     0.0147     7.858     2.804     2.621 -0.6003 -0.3580  0.7151
 
              Baa    -0.0047    -2.508    -0.895    -0.837  0.8548 -0.0297  0.5181
    63 H(1)   Bbb    -0.0040    -2.136    -0.762    -0.713  0.0461  0.9988 -0.0187
              Bcc     0.0087     4.644     1.657     1.549 -0.5169  0.0399  0.8551
 
              Baa    -0.0026    -1.380    -0.492    -0.460  0.5244  0.5254  0.6701
    64 H(1)   Bbb    -0.0021    -1.115    -0.398    -0.372 -0.5158  0.8221 -0.2410
              Bcc     0.0047     2.495     0.890     0.832 -0.6775 -0.2193  0.7021
 
              Baa    -0.0042    -0.559    -0.200    -0.187 -0.1386  0.7440 -0.6537
    65 C(13)  Bbb    -0.0040    -0.537    -0.191    -0.179  0.5199  0.6164  0.5914
              Bcc     0.0082     1.096     0.391     0.366  0.8429 -0.2579 -0.4723
 
              Baa    -0.0021    -1.129    -0.403    -0.377  0.3319  0.6474  0.6861
    66 H(1)   Bbb    -0.0017    -0.899    -0.321    -0.300 -0.0835 -0.7043  0.7050
              Bcc     0.0038     2.028     0.724     0.677  0.9396 -0.2913 -0.1797
 
              Baa    -0.0018    -0.956    -0.341    -0.319  0.4680  0.1443  0.8718
    67 H(1)   Bbb    -0.0011    -0.611    -0.218    -0.204 -0.0680  0.9895 -0.1273
              Bcc     0.0029     1.567     0.559     0.523  0.8811 -0.0003 -0.4729
 
              Baa    -0.0024    -1.261    -0.450    -0.421  0.3447 -0.5168  0.7837
    68 H(1)   Bbb    -0.0017    -0.916    -0.327    -0.306  0.5604  0.7830  0.2699
              Bcc     0.0041     2.177     0.777     0.726  0.7531 -0.3462 -0.5595
 
              Baa    -0.0041    -0.551    -0.197    -0.184  0.1837 -0.1819  0.9660
    69 C(13)  Bbb    -0.0023    -0.307    -0.110    -0.102 -0.2177  0.9508  0.2205
              Bcc     0.0064     0.858     0.306     0.286  0.9586  0.2508 -0.1350
 
              Baa    -0.0023    -1.206    -0.430    -0.402  0.3079 -0.1123  0.9448
    70 H(1)   Bbb    -0.0018    -0.942    -0.336    -0.314 -0.3147  0.9251  0.2125
              Bcc     0.0040     2.148     0.767     0.717  0.8979  0.3627 -0.2495
 
              Baa    -0.0025    -1.310    -0.467    -0.437  0.0282 -0.5080  0.8609
    71 H(1)   Bbb    -0.0022    -1.173    -0.419    -0.391 -0.2037  0.8402  0.5025
              Bcc     0.0047     2.483     0.886     0.828  0.9786  0.1895  0.0798
 
              Baa    -0.0055    -2.916    -1.040    -0.973  0.0796 -0.1424  0.9866
    72 H(1)   Bbb    -0.0042    -2.250    -0.803    -0.751 -0.4500  0.8780  0.1631
              Bcc     0.0097     5.166     1.843     1.723  0.8895  0.4570 -0.0058
 
              Baa    -0.2136    15.458     5.516     5.156  0.0655 -0.0548  0.9963
    73 O(17)  Bbb    -0.0589     4.263     1.521     1.422  0.9974 -0.0249 -0.0669
              Bcc     0.2725   -19.721    -7.037    -6.578  0.0284  0.9982  0.0530
 
              Baa    -0.0540    -7.242    -2.584    -2.416  0.1730  0.9847  0.0204
    74 C(13)  Bbb    -0.0387    -5.198    -1.855    -1.734  0.9840 -0.1720 -0.0457
              Bcc     0.0927    12.440     4.439     4.150  0.0415 -0.0280  0.9987
 
              Baa    -0.0197   -10.517    -3.753    -3.508  0.9977  0.0141 -0.0662
    75 H(1)   Bbb    -0.0025    -1.351    -0.482    -0.451 -0.0491  0.8249 -0.5631
              Bcc     0.0222    11.869     4.235     3.959  0.0467  0.5651  0.8237
 
              Baa    -0.0734     5.312     1.896     1.772  0.0301  0.9992  0.0254
    76 O(17)  Bbb    -0.0344     2.490     0.889     0.831  0.9981 -0.0287 -0.0538
              Bcc     0.1078    -7.802    -2.784    -2.603  0.0530 -0.0269  0.9982
 

 ---------------------------------------------------------------------------------

 Unable to Open any file for archive entry.
 1\1\GINC-NODE074\SP\UB3LYP\def2SVP\C24H45N1O3P2Ru1(3)\DO57CIG\16-Jan-2
 025\0\\# ub3lyp scrf=(smd,solvent=water) def2svp empiricaldispersion=g
 d3bj int=ultrafine scf=xqc guess=read\\A_Ru_Cis_DFT_B3LYP_def2svp_smd_
 water_T_Opt_3MLCT_from_3MLCT_trans\\0,3\P,0,2.412868,-0.094449,-0.1442
 65\N,0,-0.014745,1.67011,-0.067832\C,0,2.18893,1.497128,-1.074514\H,0,
 3.113566,2.087781,-1.109246\H,0,1.953738,1.189827,-2.107226\O,0,-0.142
 639,-1.080228,-2.140182\P,0,-2.428322,-0.088089,0.052854\C,0,1.054182,
 2.32638,-0.534279\C,0,1.114542,3.72489,-0.504876\H,0,1.992958,4.241783
 ,-0.894696\C,0,0.04121,4.42916,0.042209\H,0,0.062461,5.520526,0.084666
 \C,0,-1.057448,3.726797,0.538424\H,0,-1.91242,4.245906,0.974803\C,0,-1
 .05312,2.328339,0.459942\C,0,-2.212963,1.510172,0.968938\H,0,-3.132233
 ,2.11112,0.970919\H,0,-2.011577,1.219289,2.014087\Ru,0,-0.01216227,-1.
 01070848,-0.05203733\H,0,0.692632,-1.43269,-2.464648\C,0,-3.251867,0.4
 14832,-1.597843\C,0,-3.689242,-1.026507,1.141738\C,0,3.672968,-1.03308
 4,-1.235163\C,0,3.23895,0.41126,1.50261\C,0,2.316777,1.435151,2.194192
 \H,0,2.315062,2.400477,1.671025\H,0,1.27969,1.092861,2.284222\H,0,2.70
 2246,1.612888,3.211336\C,0,3.382488,-0.831614,2.403768\H,0,3.521161,-0
 .503169,3.446828\H,0,2.501202,-1.483887,2.374833\H,0,4.256058,-1.43457
 8,2.131644\C,0,4.614888,1.069055,1.328299\H,0,4.960743,1.42544,2.3136\
 H,0,5.368667,0.364833,0.953429\H,0,4.578807,1.940314,0.657466\C,0,4.74
 511,-0.114754,-1.842777\H,0,5.322707,0.432533,-1.089586\H,0,5.451726,-
 0.73695,-2.41789\H,0,4.308508,0.612477,-2.542041\C,0,4.330706,-2.15353
 1,-0.417947\H,0,4.873638,-2.822089,-1.106183\H,0,5.057683,-1.766837,0.
 307096\H,0,3.584063,-2.758676,0.11881\C,0,2.906494,-1.687136,-2.394227
 \H,0,2.185308,-2.432688,-2.030052\H,0,2.39151,-0.942841,-3.019376\H,0,
 3.627573,-2.211705,-3.042014\C,0,-3.305865,-0.812024,-2.526736\H,0,-3.
 622781,-0.480335,-3.530174\H,0,-2.318534,-1.282973,-2.614999\H,0,-4.02
 9577,-1.561929,-2.187181\C,0,-4.659288,1.003095,-1.433168\H,0,-5.00036
 6,1.37308,-2.415293\H,0,-5.388741,0.25561,-1.095253\H,0,-4.677611,1.85
 4828,-0.736724\C,0,-2.365234,1.487083,-2.258986\H,0,-2.389092,2.438805
 ,-1.710576\H,0,-1.322309,1.164388,-2.356179\H,0,-2.758542,1.681744,-3.
 270545\C,0,-2.923237,-1.658418,2.312524\H,0,-2.185951,-2.395359,1.9665
 45\H,0,-2.408753,-0.907964,2.926963\H,0,-3.645996,-2.180454,2.961255\C
 ,0,-4.776892,-0.114107,1.731119\H,0,-5.362472,0.410039,0.968029\H,0,-5
 .474454,-0.736122,2.317381\H,0,-4.352501,0.632985,2.417059\C,0,-4.3270
 81,-2.163039,0.330299\H,0,-4.882085,-2.821634,1.018632\H,0,-5.039442,-
 1.794447,-0.418833\H,0,-3.566315,-2.775045,-0.178514\O,0,0.03156848,-3
 .99509138,-0.35460353\C,0,0.05929373,-1.04636848,1.76684967\H,0,-0.031
 79452,-3.99717938,-1.32541153\O,0,0.12707673,-1.08763748,2.93618267\\V
 ersion=ES64L-G16RevC.02\State=3-A\HF=-1998.9152639\S2=2.023002\S2-1=0.
 \S2A=2.000297\RMSD=3.709e-09\Dipole=0.8516174,7.8286203,0.3434054\Quad
 rupole=37.2067695,-27.245974,-9.9607955,-1.2559967,-9.0158815,1.803523
 1\PG=C01 [X(C24H45N1O3P2Ru1)]\\@
 The archive entry for this job was punched.


 Experience is what you get when you don't get what you want.
 -- Dan Stanford
 Job cpu time:       0 days  2 hours 45 minutes 47.1 seconds.
 Elapsed time:       0 days  0 hours  7 minutes 32.1 seconds.
 File lengths (MBytes):  RWF=    829 Int=      0 D2E=      0 Chk=     67 Scr=      1
 Normal termination of Gaussian 16 at Thu Jan 16 18:23:21 2025.
