76

  P  2.40145150 -0.19940783 -0.11653614
  N -0.04170560  1.45709914 -0.15991115
  C  2.17684266  1.27599832 -1.21093877
  H  3.10560021  1.85084086 -1.32393273
  H  1.92065794  0.83984560 -2.19163214
  O -0.12698867 -0.95352372 -1.98533833
  P -2.44022781 -0.13389154  0.13621616
  C  1.06399807  2.13081676 -0.68118341
  C  1.16283897  3.50648430 -0.65037318
  H  2.05768770  3.96926312 -1.07394317
  C  0.14264062  4.30064900 -0.06991921
  H  0.21170983  5.38851807 -0.03753096
  C -0.96830795  3.60791689  0.47751213
  H -1.79895085  4.15512666  0.93065105
  C -1.04039941  2.23162234  0.43061484
  C -2.23444828  1.49330518  0.97970609
  H -3.14555958  2.10445086  0.91791196
  H -2.08372509  1.24191747  2.04433680
 Ru -0.03515366 -0.73847306  0.09003238
  H  0.61429435 -1.51063641 -2.24393095
  C -3.27099703  0.23643078 -1.53875054
  C -3.60871586 -1.13810090  1.26145236
  C  3.54404641 -1.37820976 -1.09399388
  C  3.27207630  0.40056297  1.46936053
  C  2.47111740  1.58585945  2.04541457
  H  2.56334609  2.47721440  1.41352985
  H  1.40413402  1.37843629  2.17738034
  H  2.89040939  1.82745664  3.03535958
  C  3.32143418 -0.74597696  2.49978924
  H  3.47618662 -0.31697776  3.50284278
  H  2.39902608 -1.33896375  2.53090770
  H  4.15219695 -1.43319955  2.30465328
  C  4.69740401  0.90769401  1.20115918
  H  5.08756207  1.34999861  2.13297104
  H  5.38264886  0.10177074  0.91037489
  H  4.71790341  1.69024850  0.42834355
  C  4.66118628 -0.59932262 -1.80882198
  H  5.30072954 -0.03226932 -1.12406888
  H  5.30033420 -1.32505543 -2.33908416
  H  4.25546616  0.09141408 -2.56170859
  C  4.13805583 -2.43902927 -0.15677548
  H  4.63524018 -3.20763167 -0.77059134
  H  4.89212151 -2.02317970  0.52234600
  H  3.36012548 -2.93856021  0.44032480
  C  2.72671653 -2.10785405 -2.16923342
  H  1.93250402 -2.72701195 -1.72911553
  H  2.30148359 -1.41183453 -2.90613029
  H  3.40345479 -2.78239637 -2.71790939
  C -3.25746359 -1.02312845 -2.42230455
  H -3.59331559 -0.74215905 -3.43474199
  H -2.24325835 -1.43533984 -2.49505471
  H -3.93781315 -1.80005175 -2.05523848
  C -4.71207856  0.73980541 -1.37079370
  H -5.07924025  1.06003418 -2.36029210
  H -5.39139392 -0.04201357 -1.00787391
  H -4.77673272  1.60800661 -0.69809400
  C -2.46269391  1.34549769 -2.23772825
  H -2.51624508  2.29805469 -1.69311445
  H -1.40970542  1.07322523 -2.36082027
  H -2.90245256  1.50575600 -3.23584035
  C -2.80978690 -1.67355409  2.45782148
  H -1.99563744 -2.34167779  2.14748543
  H -2.39572946 -0.86448778  3.07248137
  H -3.49696034 -2.25315913  3.09547054
  C -4.74785946 -0.26559365  1.81623153
  H -5.38790163  0.15865195  1.03559599
  H -5.38227354 -0.89710949  2.46051151
  H -4.36441103  0.55545932  2.43885142
  C -4.17588755 -2.33889639  0.49113627
  H -4.69787541 -2.99721241  1.20454002
  H -4.90332959 -2.03968696 -0.27399128
  H -3.37964957 -2.92825280  0.01150931
  O -0.18846521 -2.72552894  0.07131682
  C  0.02675220 -0.63669007  1.92540883
  H -0.25065949 -2.87839415 -0.88841403
  O  0.08261557 -0.58098941  3.08410409