 Entering Gaussian System, Link 0=g16
 Input=A_Ru_TDDFT_B3LYP_def2SVP_smd_water_Interpol_Geom_1.1_S_T_10.gjf
 Output=A_Ru_TDDFT_B3LYP_def2SVP_smd_water_Interpol_Geom_1.1_S_T_10.log
 Initial command:
 /cluster/apps/gaussian/g16_c02/g16/l1.exe "/beegfs/do57cig/gauss2132138/Gau-1285412.inp" -scrdir="/beegfs/do57cig/gauss2132138/"
 Default CPUs for threads: 0-23
 Default is to use a total of  24 processors:
                               24 via shared-memory
                                1 via Linda
 Entering Link 1 = /cluster/apps/gaussian/g16_c02/g16/l1.exe PID=   1285413.
  
 Copyright (c) 1988-2021, Gaussian, Inc.  All Rights Reserved.
  
 This is part of the Gaussian(R) 16 program.  It is based on
 the Gaussian(R) 09 system (copyright 2009, Gaussian, Inc.),
 the Gaussian(R) 03 system (copyright 2003, Gaussian, Inc.),
 the Gaussian(R) 98 system (copyright 1998, Gaussian, Inc.),
 the Gaussian(R) 94 system (copyright 1995, Gaussian, Inc.),
 the Gaussian 92(TM) system (copyright 1992, Gaussian, Inc.),
 the Gaussian 90(TM) system (copyright 1990, Gaussian, Inc.),
 the Gaussian 88(TM) system (copyright 1988, Gaussian, Inc.),
 the Gaussian 86(TM) system (copyright 1986, Carnegie Mellon
 University), and the Gaussian 82(TM) system (copyright 1983,
 Carnegie Mellon University). Gaussian is a federally registered
 trademark of Gaussian, Inc.
  
 This software contains proprietary and confidential information,
 including trade secrets, belonging to Gaussian, Inc.
  
 This software is provided under written license and may be
 used, copied, transmitted, or stored only in accord with that
 written license.
  
 The following legend is applicable only to US Government
 contracts under FAR:
  
                    RESTRICTED RIGHTS LEGEND
  
 Use, reproduction and disclosure by the US Government is
 subject to restrictions as set forth in subparagraphs (a)
 and (c) of the Commercial Computer Software - Restricted
 Rights clause in FAR 52.227-19.
  
 Gaussian, Inc.
 340 Quinnipiac St., Bldg. 40, Wallingford CT 06492
  
  
 ---------------------------------------------------------------
 Warning -- This program may not be used in any manner that
 competes with the business of Gaussian, Inc. or will provide
 assistance to any competitor of Gaussian, Inc.  The licensee
 of this program is prohibited from giving any competitor of
 Gaussian, Inc. access to this program.  By using this program,
 the user acknowledges that Gaussian, Inc. is engaged in the
 business of creating and licensing software in the field of
 computational chemistry and represents and warrants to the
 licensee that it is not a competitor of Gaussian, Inc. and that
 it will not use this program in any manner prohibited above.
 ---------------------------------------------------------------
  

 Cite this work as:
 Gaussian 16, Revision C.02,
 M. J. Frisch, G. W. Trucks, H. B. Schlegel, G. E. Scuseria, 
 M. A. Robb, J. R. Cheeseman, G. Scalmani, V. Barone, 
 G. A. Petersson, H. Nakatsuji, X. Li, M. Caricato, A. V. Marenich, 
 J. Bloino, B. G. Janesko, R. Gomperts, B. Mennucci, H. P. Hratchian, 
 J. V. Ortiz, A. F. Izmaylov, J. L. Sonnenberg, D. Williams-Young, 
 F. Ding, F. Lipparini, F. Egidi, J. Goings, B. Peng, A. Petrone, 
 T. Henderson, D. Ranasinghe, V. G. Zakrzewski, J. Gao, N. Rega, 
 G. Zheng, W. Liang, M. Hada, M. Ehara, K. Toyota, R. Fukuda, 
 J. Hasegawa, M. Ishida, T. Nakajima, Y. Honda, O. Kitao, H. Nakai, 
 T. Vreven, K. Throssell, J. A. Montgomery, Jr., J. E. Peralta, 
 F. Ogliaro, M. J. Bearpark, J. J. Heyd, E. N. Brothers, K. N. Kudin, 
 V. N. Staroverov, T. A. Keith, R. Kobayashi, J. Normand, 
 K. Raghavachari, A. P. Rendell, J. C. Burant, S. S. Iyengar, 
 J. Tomasi, M. Cossi, J. M. Millam, M. Klene, C. Adamo, R. Cammi, 
 J. W. Ochterski, R. L. Martin, K. Morokuma, O. Farkas, 
 J. B. Foresman, and D. J. Fox, Gaussian, Inc., Wallingford CT, 2019.
 
 ******************************************
 Gaussian 16:  ES64L-G16RevC.02  7-Dec-2021
                20-Sep-2024 
 ******************************************
 %chk=A_Ru_TDDFT_B3LYP_def2SVP_smd_water_Interpol_Geom_1.1_S_T_10.chk
 SetSPE:  set environment variable "OMP_PROC_BIND" = "true"
 SetSPE:  set environment variable "OMP_PLACES" = "{0},{1},{2},{3},{4},{5},{6},{7},{8},{9},{10},{11},{12},{13},{14},{15},{16},{17},{18},{19},{20},{21},{22},{23}"
 ----------------------------------------------------------------------
 # td=(triplets,nstates=10,conver=3) b3lyp scrf=(smd,solvent=water) def
 2svp empiricaldispersion=gd3bj int=ultrafine scf=xqc
 ----------------------------------------------------------------------
 1/38=1,172=1/1;
 2/12=2,17=6,18=5,40=1/2;
 3/5=43,7=101,11=9,25=1,30=1,70=32201,72=1,74=-5,75=-5,124=41/1,2,3,8;
 4//1;
 5/5=2,8=3,13=1,38=5,53=1/2,8;
 8/6=1,10=1,108=10/1;
 9/9=3,41=10,42=1,48=3,70=2/14;
 6/7=2,8=2,9=2,10=2/1;
 99/5=1,9=1/99;
 -----------------------------------------------------------
 A_Ru_TDDFT_B3LYP_def2SVP_smd_water_Interpol_Geom_1.1_S_T_10
 -----------------------------------------------------------
 Symbolic Z-matrix:
 Charge =  0 Multiplicity = 1
 P                     2.40145  -0.19941  -0.11654 
 N                    -0.04171   1.4571   -0.15991 
 C                     2.17684   1.276    -1.21094 
 H                     3.1056    1.85084  -1.32393 
 H                     1.92066   0.83985  -2.19163 
 O                    -0.12699  -0.95352  -1.98534 
 P                    -2.44023  -0.13389   0.13622 
 C                     1.064     2.13082  -0.68118 
 C                     1.16284   3.50648  -0.65037 
 H                     2.05769   3.96926  -1.07394 
 C                     0.14264   4.30065  -0.06992 
 H                     0.21171   5.38852  -0.03753 
 C                    -0.96831   3.60792   0.47751 
 H                    -1.79895   4.15513   0.93065 
 C                    -1.0404    2.23162   0.43061 
 C                    -2.23445   1.49331   0.97971 
 H                    -3.14556   2.10445   0.91791 
 H                    -2.08373   1.24192   2.04434 
 Ru                   -0.03515  -0.73847   0.09003 
 H                     0.61429  -1.51064  -2.24393 
 C                    -3.271     0.23643  -1.53875 
 C                    -3.60872  -1.1381    1.26145 
 C                     3.54405  -1.37821  -1.09399 
 C                     3.27208   0.40056   1.46936 
 C                     2.47112   1.58586   2.04541 
 H                     2.56335   2.47721   1.41353 
 H                     1.40413   1.37844   2.17738 
 H                     2.89041   1.82746   3.03536 
 C                     3.32143  -0.74598   2.49979 
 H                     3.47619  -0.31698   3.50284 
 H                     2.39903  -1.33896   2.53091 
 H                     4.1522   -1.4332    2.30465 
 C                     4.6974    0.90769   1.20116 
 H                     5.08756   1.35      2.13297 
 H                     5.38265   0.10177   0.91037 
 H                     4.7179    1.69025   0.42834 
 C                     4.66119  -0.59932  -1.80882 
 H                     5.30073  -0.03227  -1.12407 
 H                     5.30033  -1.32506  -2.33908 
 H                     4.25547   0.09141  -2.56171 
 C                     4.13806  -2.43903  -0.15678 
 H                     4.63524  -3.20763  -0.77059 
 H                     4.89212  -2.02318   0.52235 
 H                     3.36013  -2.93856   0.44032 
 C                     2.72672  -2.10785  -2.16923 
 H                     1.9325   -2.72701  -1.72912 
 H                     2.30148  -1.41183  -2.90613 
 H                     3.40345  -2.7824   -2.71791 
 C                    -3.25746  -1.02313  -2.4223 
 H                    -3.59332  -0.74216  -3.43474 
 H                    -2.24326  -1.43534  -2.49505 
 H                    -3.93781  -1.80005  -2.05524 
 C                    -4.71208   0.73981  -1.37079 
 H                    -5.07924   1.06003  -2.36029 
 H                    -5.39139  -0.04201  -1.00787 
 H                    -4.77673   1.60801  -0.69809 
 C                    -2.46269   1.3455   -2.23773 
 H                    -2.51625   2.29805  -1.69311 
 H                    -1.40971   1.07323  -2.36082 
 H                    -2.90245   1.50576  -3.23584 
 C                    -2.80979  -1.67355   2.45782 
 H                    -1.99564  -2.34168   2.14749 
 H                    -2.39573  -0.86449   3.07248 
 H                    -3.49696  -2.25316   3.09547 
 C                    -4.74786  -0.26559   1.81623 
 H                    -5.3879    0.15865   1.0356 
 H                    -5.38227  -0.89711   2.46051 
 H                    -4.36441   0.55546   2.43885 
 C                    -4.17589  -2.3389    0.49114 
 H                    -4.69788  -2.99721   1.20454 
 H                    -4.90333  -2.03969  -0.27399 
 H                    -3.37965  -2.92825   0.01151 
 O                    -0.18847  -2.72553   0.07132 
 C                     0.02675  -0.63669   1.92541 
 H                    -0.25066  -2.87839  -0.88841 
 O                     0.08262  -0.58099   3.0841 
 
 Stoichiometry    C24H45NO3P2Ru
 Framework group  C1[X(C24H45NO3P2Ru)]
 Deg. of freedom   222
 Full point group                 C1      NOp   1
 Largest Abelian subgroup         C1      NOp   1
 Largest concise Abelian subgroup C1      NOp   1
                         Standard orientation:                         
 ---------------------------------------------------------------------
 Center     Atomic      Atomic             Coordinates (Angstroms)
 Number     Number       Type             X           Y           Z
 ---------------------------------------------------------------------
      1         15           0        2.413258   -0.159704   -0.181655
      2          7           0       -0.031510    1.494727   -0.211437
      3          6           0        2.188607    1.326531   -1.261298
      4          1           0        3.116932    1.903417   -1.367204
      5          1           0        1.934158    0.900120   -2.246715
      6          8           0       -0.111950   -0.897292   -2.061393
      7         15           0       -2.428815   -0.101579    0.065305
      8          6           0        1.074202    2.174810   -0.724359
      9          6           0        1.171614    3.550191   -0.679431
     10          1           0        2.066554    4.018144   -1.097082
     11          6           0        0.149849    4.337396   -0.092291
     12          1           0        0.217778    5.424948   -0.048751
     13          6           0       -0.961122    3.638028    0.446589
     14          1           0       -1.792914    4.179774    0.904163
     15          6           0       -1.031763    2.262210    0.385604
     16          6           0       -2.225791    1.517159    0.925570
     17          1           0       -3.137436    2.127995    0.868780
     18          1           0       -2.076221    1.255108    1.987789
     19         44           0       -0.023073   -0.703266    0.016178
     20          1           0        0.630236   -1.451008   -2.324650
     21          6           0       -3.257744    0.284930   -1.606914
     22          6           0       -3.597775   -1.118342    1.178716
     23          6           0        3.558331   -1.327367   -1.169527
     24          6           0        3.281181    0.424975    1.411417
     25          6           0        2.478267    1.603554    1.998427
     26          1           0        2.570431    2.501380    1.375762
     27          1           0        1.411320    1.393738    2.126856
     28          1           0        2.896007    1.835489    2.991335
     29          6           0        3.330334   -0.731935    2.430199
     30          1           0        3.483329   -0.313005    3.437768
     31          1           0        2.408485   -1.326125    2.454059
     32          1           0        4.162047   -1.416311    2.229192
     33          6           0        4.706350    0.936225    1.150284
     34          1           0        5.094830    1.369419    2.087063
     35          1           0        5.392791    0.133983    0.852232
     36          1           0        4.727081    1.726618    0.385493
     37          6           0        4.675628   -0.540139   -1.874911
     38          1           0        5.313694    0.020558   -1.183577
     39          1           0        5.316208   -1.259806   -2.411674
     40          1           0        4.270206    0.157814   -2.621274
     41          6           0        4.152172   -2.397071   -0.242354
     42          1           0        4.650942   -3.158896   -0.863291
     43          1           0        4.904920   -1.987399    0.441964
     44          1           0        3.373958   -2.903422    0.348600
     45          6           0        2.743159   -2.046852   -2.253217
     46          1           0        1.948990   -2.671244   -1.820475
     47          1           0        2.318198   -1.343798   -2.983564
     48          1           0        3.421301   -2.715106   -2.807822
     49          6           0       -3.241773   -0.965565   -2.503211
     50          1           0       -3.576571   -0.674648   -3.513185
     51          1           0       -2.227057   -1.376005   -2.578799
     52          1           0       -3.921823   -1.746857   -2.144970
     53          6           0       -4.699553    0.785136   -1.435766
     54          1           0       -5.065730    1.115046   -2.422445
     55          1           0       -5.378558   -0.001009   -1.081719
     56          1           0       -4.765972    1.646387   -0.754360
     57          6           0       -2.449637    1.401852   -2.293502
     58          1           0       -2.504869    2.348767   -1.739302
     59          1           0       -1.396213    1.131893   -2.417954
     60          1           0       -2.888239    1.571814   -3.290517
     61          6           0       -2.799887   -1.665139    2.370641
     62          1           0       -1.984655   -2.329261    2.054611
     63          1           0       -2.387458   -0.861953    2.994046
     64          1           0       -3.487317   -2.251882    3.001448
     65          6           0       -4.738530   -0.252656    1.740821
     66          1           0       -5.377968    0.178869    0.963688
     67          1           0       -5.373157   -0.891322    2.377801
     68          1           0       -4.356732    0.562404    2.372267
     69          6           0       -4.162717   -2.311806    0.395475
     70          1           0       -4.684982   -2.977862    1.101453
     71          1           0       -4.889449   -2.005555   -0.367538
     72          1           0       -3.365252   -2.895462   -0.089059
     73          8           0       -0.174356   -2.690181   -0.022946
     74          6           0        0.036306   -0.620092    1.852575
     75          1           0       -0.235128   -2.833340   -0.984263
     76          8           0        0.090582   -0.576122    3.011850
 ---------------------------------------------------------------------
 Rotational constants (GHZ):           0.1977407           0.1041051           0.0963761
 Standard basis: def2SVP (5D, 7F)
 There are   719 symmetry adapted cartesian basis functions of A   symmetry.
 There are   684 symmetry adapted basis functions of A   symmetry.
   684 basis functions,  1154 primitive gaussians,   719 cartesian basis functions
   133 alpha electrons      133 beta electrons
       nuclear repulsion energy      4523.0685834660 Hartrees.
 NAtoms=   76 NActive=   76 NUniq=   76 SFac= 1.00D+00 NAtFMM=   60 NAOKFM=T Big=T
 Integral buffers will be    131072 words long.
 Regular integral format.
 Two-electron integral symmetry is turned on.
 Nuclear repulsion after empirical dispersion term =     4522.8473331423 Hartrees.
 ------------------------------------------------------------------------------
 Polarizable Continuum Model (PCM)
 =================================
 Model                : PCM.
 Atomic radii         : SMD-Coulomb.
 Polarization charges : Total charges.
 Charge compensation  : None.
 Solution method      : On-the-fly selection.
 Cavity type          : VdW (van der Waals Surface) (Alpha=1.000).
 Cavity algorithm     : GePol (No added spheres)
                        Default sphere list used, NSphG=   76.
                        Lebedev-Laikov grids with approx.  5.0 points / Ang**2.
                        Smoothing algorithm: York/Karplus (Gamma=1.0000).
                        Polarization charges: spherical gaussians, with
                                              point-specific exponents (IZeta= 3).
                        Self-potential: point-specific (ISelfS= 7).
                        Self-field    : sphere-specific E.n sum rule (ISelfD= 2).
 Solvent              : Water, Eps=  78.355300 Eps(inf)=   1.777849
 ------------------------------------------------------------------------------
 ------------------------------------------------------------------------------
 Atomic radii for non-electrostatic terms: SMD-CDS.
 ------------------------------------------------------------------------------
 Nuclear repulsion after PCM non-electrostatic terms =     4522.8659799026 Hartrees.
 One-electron integrals computed using PRISM.
   1 Symmetry operations used in ECPInt.
 ECPInt:  NShTT=   54615 NPrTT=  190596 LenC2=   48087 LenP2D=  113822.
 LDataN:  DoStor=T MaxTD1= 7 Len=  274
 NBasis=   684 RedAO= T EigKep=  4.87D-04  NBF=   684
 NBsUse=   684 1.00D-06 EigRej= -1.00D+00 NBFU=   684
 Defaulting to unpruned grid for atomic number  44.
 ExpMin= 3.92D-02 ExpMax= 8.00D+03 ExpMxC= 1.20D+03 IAcc=3 IRadAn=         5 AccDes= 0.00D+00
 Harris functional with IExCor=  402 and IRadAn=       5 diagonalized for initial guess.
 HarFok:  IExCor=  402 AccDes= 0.00D+00 IRadAn=         5 IDoV= 1 UseB2=F ITyADJ=14
 ICtDFT=  3500011 ScaDFX=  1.000000  1.000000  1.000000  1.000000
 Defaulting to unpruned grid for atomic number  44.
 FoFCou: FMM=F IPFlag=           0 FMFlag=      100000 FMFlg1=        2001
         NFxFlg=           0 DoJE=T BraDBF=F KetDBF=T FulRan=T
         wScrn=  0.000000 ICntrl=       500 IOpCl=  0 I1Cent=   200000004 NGrid=           0
         NMat0=    1 NMatS0=      1 NMatT0=    0 NMatD0=    1 NMtDS0=    0 NMtDT0=    0
 Petite list used in FoFCou.
 Requested convergence on RMS density matrix=1.00D-08 within  32 cycles.
 Requested convergence on MAX density matrix=1.00D-06.
 Requested convergence on             energy=1.00D-06.
 No special actions if energy rises.
 Defaulting to unpruned grid for atomic number  44.
 Defaulting to unpruned grid for atomic number  44.
 Defaulting to unpruned grid for atomic number  44.
 Defaulting to unpruned grid for atomic number  44.
 Defaulting to unpruned grid for atomic number  44.
 Defaulting to unpruned grid for atomic number  44.
 Defaulting to unpruned grid for atomic number  44.
 Defaulting to unpruned grid for atomic number  44.
 Defaulting to unpruned grid for atomic number  44.
 Defaulting to unpruned grid for atomic number  44.
 Defaulting to unpruned grid for atomic number  44.
 Defaulting to unpruned grid for atomic number  44.
 Defaulting to unpruned grid for atomic number  44.
 Defaulting to unpruned grid for atomic number  44.
 Defaulting to unpruned grid for atomic number  44.
 Defaulting to unpruned grid for atomic number  44.
 Defaulting to unpruned grid for atomic number  44.
 Defaulting to unpruned grid for atomic number  44.
 Defaulting to unpruned grid for atomic number  44.
 Defaulting to unpruned grid for atomic number  44.
 Defaulting to unpruned grid for atomic number  44.
 Defaulting to unpruned grid for atomic number  44.
 Defaulting to unpruned grid for atomic number  44.
 Defaulting to unpruned grid for atomic number  44.
 Inv3:  Mode=1 IEnd=    64449675.
 Iteration    1 A*A^-1 deviation from unit magnitude is 3.77D-15 for   2679.
 Iteration    1 A*A^-1 deviation from orthogonality  is 3.55D-15 for   2727   2104.
 Iteration    1 A^-1*A deviation from unit magnitude is 3.33D-15 for   2679.
 Iteration    1 A^-1*A deviation from orthogonality  is 1.56D-14 for   4194   4144.
 Error on total polarization charges =  0.07687
 SCF Done:  E(RB3LYP) =  -1998.98973717     A.U. after   19 cycles
            NFock= 19  Conv=0.20D-08     -V/T= 2.0404
 SMD-CDS (non-electrostatic) energy       (kcal/mol) =      11.70
 (included in total energy above)
 QCSCF skips out because SCF is already converged.
 DoSCS=F DFT=T ScalE2(SS,OS)=  1.000000  1.000000
 ExpMin= 3.92D-02 ExpMax= 8.00D+03 ExpMxC= 1.20D+03 IAcc=3 IRadAn=         5 AccDes= 0.00D+00
 HarFok:  IExCor=  205 AccDes= 0.00D+00 IRadAn=         5 IDoV=-2 UseB2=F ITyADJ=14
 ICtDFT= 12500011 ScaDFX=  1.000000  1.000000  1.000000  1.000000
 Defaulting to unpruned grid for atomic number  44.
 GSVD:  LWork=       -2100 too small for GESVD, short by        9450 words or        9450 for optimal perf.
 Range of M.O.s used for correlation:    43   684
 NBasis=   684 NAE=   133 NBE=   133 NFC=    42 NFV=     0
 NROrb=    642 NOA=    91 NOB=    91 NVA=   551 NVB=   551
 NEqPCM:  Using non-equilibrium solvation (IEInf=1, Eps=  78.3553, EpsInf=   1.7778)
 Inv3:  Mode=1 IEnd=    64449675.
 Iteration    1 A*A^-1 deviation from unit magnitude is 3.77D-15 for   2676.
 Iteration    1 A*A^-1 deviation from orthogonality  is 2.55D-15 for   3097    492.
 Iteration    1 A^-1*A deviation from unit magnitude is 3.89D-15 for   3796.
 Iteration    1 A^-1*A deviation from orthogonality  is 2.40D-14 for   4225   4144.
 Orbital symmetries:
       Occupied  (A) (A) (A) (A) (A) (A) (A) (A) (A) (A) (A) (A)
                 (A) (A) (A) (A) (A) (A) (A) (A) (A) (A) (A) (A)
                 (A) (A) (A) (A) (A) (A) (A) (A) (A) (A) (A) (A)
                 (A) (A) (A) (A) (A) (A) (A) (A) (A) (A) (A) (A)
                 (A) (A) (A) (A) (A) (A) (A) (A) (A) (A) (A) (A)
                 (A) (A) (A) (A) (A) (A) (A) (A) (A) (A) (A) (A)
                 (A) (A) (A) (A) (A) (A) (A) (A) (A) (A) (A) (A)
                 (A) (A) (A) (A) (A) (A) (A) (A) (A) (A) (A) (A)
                 (A) (A) (A) (A) (A) (A) (A) (A) (A) (A) (A) (A)
                 (A) (A) (A) (A) (A) (A) (A) (A) (A) (A) (A) (A)
                 (A) (A) (A) (A) (A) (A) (A) (A) (A) (A) (A) (A)
                 (A)
       Virtual   (A) (A) (A) (A) (A) (A) (A) (A) (A) (A) (A) (A)
                 (A) (A) (A) (A) (A) (A) (A) (A) (A) (A) (A) (A)
                 (A) (A) (A) (A) (A) (A) (A) (A) (A) (A) (A) (A)
                 (A) (A) (A) (A) (A) (A) (A) (A) (A) (A) (A) (A)
                 (A) (A) (A) (A) (A) (A) (A) (A) (A) (A) (A) (A)
                 (A) (A) (A) (A) (A) (A) (A) (A) (A) (A) (A) (A)
                 (A) (A) (A) (A) (A) (A) (A) (A) (A) (A) (A) (A)
                 (A) (A) (A) (A) (A) (A) (A) (A) (A) (A) (A) (A)
                 (A) (A) (A) (A) (A) (A) (A) (A) (A) (A) (A) (A)
                 (A) (A) (A) (A) (A) (A) (A) (A) (A) (A) (A) (A)
                 (A) (A) (A) (A) (A) (A) (A) (A) (A) (A) (A) (A)
                 (A) (A) (A) (A) (A) (A) (A) (A) (A) (A) (A) (A)
                 (A) (A) (A) (A) (A) (A) (A) (A) (A) (A) (A) (A)
                 (A) (A) (A) (A) (A) (A) (A) (A) (A) (A) (A) (A)
                 (A) (A) (A) (A) (A) (A) (A) (A) (A) (A) (A) (A)
                 (A) (A) (A) (A) (A) (A) (A) (A) (A) (A) (A) (A)
                 (A) (A) (A) (A) (A) (A) (A) (A) (A) (A) (A) (A)
                 (A) (A) (A) (A) (A) (A) (A) (A) (A) (A) (A) (A)
                 (A) (A) (A) (A) (A) (A) (A) (A) (A) (A) (A) (A)
                 (A) (A) (A) (A) (A) (A) (A) (A) (A) (A) (A) (A)
                 (A) (A) (A) (A) (A) (A) (A) (A) (A) (A) (A) (A)
                 (A) (A) (A) (A) (A) (A) (A) (A) (A) (A) (A) (A)
                 (A) (A) (A) (A) (A) (A) (A) (A) (A) (A) (A) (A)
                 (A) (A) (A) (A) (A) (A) (A) (A) (A) (A) (A) (A)
                 (A) (A) (A) (A) (A) (A) (A) (A) (A) (A) (A) (A)
                 (A) (A) (A) (A) (A) (A) (A) (A) (A) (A) (A) (A)
                 (A) (A) (A) (A) (A) (A) (A) (A) (A) (A) (A) (A)
                 (A) (A) (A) (A) (A) (A) (A) (A) (A) (A) (A) (A)
                 (A) (A) (A) (A) (A) (A) (A) (A) (A) (A) (A) (A)
                 (A) (A) (A) (A) (A) (A) (A) (A) (A) (A) (A) (A)
                 (A) (A) (A) (A) (A) (A) (A) (A) (A) (A) (A) (A)
                 (A) (A) (A) (A) (A) (A) (A) (A) (A) (A) (A) (A)
                 (A) (A) (A) (A) (A) (A) (A) (A) (A) (A) (A) (A)
                 (A) (A) (A) (A) (A) (A) (A) (A) (A) (A) (A) (A)
                 (A) (A) (A) (A) (A) (A) (A) (A) (A) (A) (A) (A)
                 (A) (A) (A) (A) (A) (A) (A) (A) (A) (A) (A) (A)
                 (A) (A) (A) (A) (A) (A) (A) (A) (A) (A) (A) (A)
                 (A) (A) (A) (A) (A) (A) (A) (A) (A) (A) (A) (A)
                 (A) (A) (A) (A) (A) (A) (A) (A) (A) (A) (A) (A)
                 (A) (A) (A) (A) (A) (A) (A) (A) (A) (A) (A) (A)
                 (A) (A) (A) (A) (A) (A) (A) (A) (A) (A) (A) (A)
                 (A) (A) (A) (A) (A) (A) (A) (A) (A) (A) (A) (A)
                 (A) (A) (A) (A) (A) (A) (A) (A) (A) (A) (A) (A)
                 (A) (A) (A) (A) (A) (A) (A) (A) (A) (A) (A) (A)
                 (A) (A) (A) (A) (A) (A) (A) (A) (A) (A) (A) (A)
                 (A) (A) (A) (A) (A) (A) (A) (A) (A) (A) (A)
    40 initial guesses have been made.
 Convergence on wavefunction:    0.001000000000000
 Iteration     1 Dimension    40 NMult     0 NNew     40
 CISAX will form    40 AO SS matrices at one time.
 Defaulting to unpruned grid for atomic number  44.
 Defaulting to unpruned grid for atomic number  44.
 Defaulting to unpruned grid for atomic number  44.
 Defaulting to unpruned grid for atomic number  44.
 Defaulting to unpruned grid for atomic number  44.
 Defaulting to unpruned grid for atomic number  44.
 Defaulting to unpruned grid for atomic number  44.
 Defaulting to unpruned grid for atomic number  44.
 Defaulting to unpruned grid for atomic number  44.
 Defaulting to unpruned grid for atomic number  44.
 Defaulting to unpruned grid for atomic number  44.
 Defaulting to unpruned grid for atomic number  44.
 Defaulting to unpruned grid for atomic number  44.
 Defaulting to unpruned grid for atomic number  44.
 Defaulting to unpruned grid for atomic number  44.
 Defaulting to unpruned grid for atomic number  44.
 Defaulting to unpruned grid for atomic number  44.
 Defaulting to unpruned grid for atomic number  44.
 Defaulting to unpruned grid for atomic number  44.
 Defaulting to unpruned grid for atomic number  44.
 Defaulting to unpruned grid for atomic number  44.
 Defaulting to unpruned grid for atomic number  44.
 Defaulting to unpruned grid for atomic number  44.
 Defaulting to unpruned grid for atomic number  44.
 New state      2 was old state      5
 New state      4 was old state      2
 New state      5 was old state      4
 New state      6 was old state     13
 New state      7 was old state     11
 New state      8 was old state      7
 New state     10 was old state     15
 Iteration     2 Dimension    60 NMult    40 NNew     20
 New state      6 was old state      7
 New state      7 was old state      6
 New state      9 was old state     10
 New state     10 was old state      9
 Iteration     3 Dimension    80 NMult    60 NNew     20
 Iteration     4 Dimension   100 NMult    80 NNew     20
 Iteration     5 Dimension   114 NMult   100 NNew     14
 Iteration     6 Dimension   120 NMult   114 NNew      6
 ***********************************************************************
 Excited states from <AA,BB:AA,BB> singles matrix:
 ***********************************************************************
 
 Ground to excited state transition densities written to RWF  633
 Ground to excited state transition electric dipole moments (Au):
       state          X           Y           Z        Dip. S.      Osc.
         1        -0.0000     -0.0000     -0.0000      0.0000      0.0000
         2        -0.0000     -0.0000     -0.0000      0.0000      0.0000
         3        -0.0000     -0.0000     -0.0000      0.0000      0.0000
         4        -0.0000     -0.0000     -0.0000      0.0000      0.0000
         5        -0.0000     -0.0000     -0.0000      0.0000      0.0000
         6        -0.0000     -0.0000     -0.0000      0.0000      0.0000
         7        -0.0000     -0.0000     -0.0000      0.0000      0.0000
         8        -0.0000     -0.0000     -0.0000      0.0000      0.0000
         9        -0.0000     -0.0000     -0.0000      0.0000      0.0000
        10        -0.0000     -0.0000     -0.0000      0.0000      0.0000
 Ground to excited state transition velocity dipole moments (Au):
       state          X           Y           Z        Dip. S.      Osc.
         1         0.0000      0.0000      0.0000      0.0000      0.0000
         2         0.0000      0.0000      0.0000      0.0000      0.0000
         3         0.0000      0.0000      0.0000      0.0000      0.0000
         4         0.0000      0.0000      0.0000      0.0000      0.0000
         5         0.0000      0.0000      0.0000      0.0000      0.0000
         6         0.0000      0.0000      0.0000      0.0000      0.0000
         7         0.0000      0.0000      0.0000      0.0000      0.0000
         8         0.0000      0.0000      0.0000      0.0000      0.0000
         9         0.0000      0.0000      0.0000      0.0000      0.0000
        10         0.0000      0.0000      0.0000      0.0000      0.0000
 Ground to excited state transition magnetic dipole moments (Au):
       state          X           Y           Z
         1         0.0000      0.0000      0.0000
         2         0.0000      0.0000      0.0000
         3         0.0000      0.0000      0.0000
         4         0.0000      0.0000      0.0000
         5         0.0000      0.0000      0.0000
         6         0.0000      0.0000      0.0000
         7         0.0000      0.0000      0.0000
         8         0.0000      0.0000      0.0000
         9         0.0000      0.0000      0.0000
        10         0.0000      0.0000      0.0000
 Ground to excited state transition velocity quadrupole moments (Au):
       state          XX          YY          ZZ          XY          XZ          YZ
         1         0.0000      0.0000      0.0000      0.0000      0.0000      0.0000
         2         0.0000      0.0000      0.0000      0.0000      0.0000      0.0000
         3         0.0000      0.0000      0.0000      0.0000      0.0000      0.0000
         4         0.0000      0.0000      0.0000      0.0000      0.0000      0.0000
         5         0.0000      0.0000      0.0000      0.0000      0.0000      0.0000
         6         0.0000      0.0000      0.0000      0.0000      0.0000      0.0000
         7         0.0000      0.0000      0.0000      0.0000      0.0000      0.0000
         8         0.0000      0.0000      0.0000      0.0000      0.0000      0.0000
         9         0.0000      0.0000      0.0000      0.0000      0.0000      0.0000
        10         0.0000      0.0000      0.0000      0.0000      0.0000      0.0000
 <0|del|b> * <b|rxdel|0> + <0|del|b> * <b|delr+rdel|0>
 Rotatory Strengths (R) in cgs (10**-40 erg-esu-cm/Gauss)
       state          XX          YY          ZZ    R(velocity)    E-M Angle
         1         0.0000      0.0000      0.0000      0.0000       90.00
         2         0.0000      0.0000      0.0000      0.0000       90.00
         3         0.0000      0.0000      0.0000      0.0000       90.00
         4         0.0000      0.0000      0.0000      0.0000       90.00
         5         0.0000      0.0000      0.0000      0.0000       90.00
         6         0.0000      0.0000      0.0000      0.0000       90.00
         7         0.0000      0.0000      0.0000      0.0000       90.00
         8         0.0000      0.0000      0.0000      0.0000       90.00
         9         0.0000      0.0000      0.0000      0.0000       90.00
        10         0.0000      0.0000      0.0000      0.0000       90.00
 1/2[<0|r|b>*<b|rxdel|0> + (<0|rxdel|b>*<b|r|0>)*]
 Rotatory Strengths (R) in cgs (10**-40 erg-esu-cm/Gauss)
       state          XX          YY          ZZ     R(length)
         1         0.0000      0.0000      0.0000      0.0000
         2         0.0000      0.0000      0.0000      0.0000
         3         0.0000      0.0000      0.0000      0.0000
         4         0.0000      0.0000      0.0000      0.0000
         5         0.0000      0.0000      0.0000      0.0000
         6         0.0000      0.0000      0.0000      0.0000
         7         0.0000      0.0000      0.0000      0.0000
         8         0.0000      0.0000      0.0000      0.0000
         9         0.0000      0.0000      0.0000      0.0000
        10         0.0000      0.0000      0.0000      0.0000
  1/2[<0|del|b>*<b|r|0> + (<0|r|b>*<b|del|0>)*] (Au)
       state          X           Y           Z        Dip. S.   Osc.(frdel)
         1        -0.0000     -0.0000     -0.0000      0.0000      0.0000
         2        -0.0000     -0.0000     -0.0000      0.0000      0.0000
         3        -0.0000     -0.0000     -0.0000      0.0000      0.0000
         4        -0.0000     -0.0000     -0.0000      0.0000      0.0000
         5        -0.0000     -0.0000     -0.0000      0.0000      0.0000
         6        -0.0000     -0.0000     -0.0000      0.0000      0.0000
         7        -0.0000     -0.0000     -0.0000      0.0000      0.0000
         8        -0.0000     -0.0000     -0.0000      0.0000      0.0000
         9        -0.0000     -0.0000     -0.0000      0.0000      0.0000
        10        -0.0000     -0.0000     -0.0000      0.0000      0.0000

 Excitation energies and oscillator strengths:
 
 Excited State   1:      Triplet-A      1.9459 eV  637.17 nm  f=0.0000  <S**2>=2.000
     133 ->134         0.58775
     133 ->136        -0.35677
     133 ->139         0.10226
 This state for optimization and/or second-order correction.
 Total Energy, E(TD-HF/TD-DFT) =  -1998.91822789    
 Copying the excited state density for this state as the 1-particle RhoCI density.
 
 Excited State   2:      Triplet-A      2.1954 eV  564.74 nm  f=0.0000  <S**2>=2.000
     133 ->134         0.37508
     133 ->135         0.11657
     133 ->136         0.56917
 
 Excited State   3:      Triplet-A      2.8514 eV  434.82 nm  f=0.0000  <S**2>=2.000
     131 ->134        -0.23486
     132 ->134         0.61384
     132 ->136        -0.11531
 
 Excited State   4:      Triplet-A      3.0685 eV  404.06 nm  f=0.0000  <S**2>=2.000
     133 ->135         0.68023
     133 ->136        -0.11903
 
 Excited State   5:      Triplet-A      3.2464 eV  381.92 nm  f=0.0000  <S**2>=2.000
     131 ->134         0.45864
     132 ->134         0.16737
     132 ->136        -0.19350
     133 ->138         0.12734
     133 ->139        -0.35239
 
 Excited State   6:      Triplet-A      3.2704 eV  379.11 nm  f=0.0000  <S**2>=2.000
     131 ->134         0.36038
     132 ->134         0.19391
     133 ->138        -0.13290
     133 ->139         0.49826
 
 Excited State   7:      Triplet-A      3.3502 eV  370.08 nm  f=0.0000  <S**2>=2.000
     131 ->134         0.12874
     131 ->136        -0.13071
     132 ->134         0.18185
     132 ->135         0.11090
     132 ->136         0.61960
 
 Excited State   8:      Triplet-A      3.5625 eV  348.03 nm  f=0.0000  <S**2>=2.000
     131 ->136         0.14499
     133 ->137         0.66538
 
 Excited State   9:      Triplet-A      3.6535 eV  339.36 nm  f=0.0000  <S**2>=2.000
     130 ->136         0.12356
     131 ->136         0.60964
     133 ->137        -0.16340
 
 Excited State  10:      Triplet-A      3.7333 eV  332.10 nm  f=0.0000  <S**2>=2.000
     133 ->138         0.65823
     133 ->139         0.19977
 SavETr:  write IOETrn=   770 NScale= 10 NData=  16 NLR=1 NState=   10 LETran=     190.

 **********************************************************************

            Population analysis using the SCF Density.

 **********************************************************************

 Orbital symmetries:
       Occupied  (A) (A) (A) (A) (A) (A) (A) (A) (A) (A) (A) (A)
                 (A) (A) (A) (A) (A) (A) (A) (A) (A) (A) (A) (A)
                 (A) (A) (A) (A) (A) (A) (A) (A) (A) (A) (A) (A)
                 (A) (A) (A) (A) (A) (A) (A) (A) (A) (A) (A) (A)
                 (A) (A) (A) (A) (A) (A) (A) (A) (A) (A) (A) (A)
                 (A) (A) (A) (A) (A) (A) (A) (A) (A) (A) (A) (A)
                 (A) (A) (A) (A) (A) (A) (A) (A) (A) (A) (A) (A)
                 (A) (A) (A) (A) (A) (A) (A) (A) (A) (A) (A) (A)
                 (A) (A) (A) (A) (A) (A) (A) (A) (A) (A) (A) (A)
                 (A) (A) (A) (A) (A) (A) (A) (A) (A) (A) (A) (A)
                 (A) (A) (A) (A) (A) (A) (A) (A) (A) (A) (A) (A)
                 (A)
       Virtual   (A) (A) (A) (A) (A) (A) (A) (A) (A) (A) (A) (A)
                 (A) (A) (A) (A) (A) (A) (A) (A) (A) (A) (A) (A)
                 (A) (A) (A) (A) (A) (A) (A) (A) (A) (A) (A) (A)
                 (A) (A) (A) (A) (A) (A) (A) (A) (A) (A) (A) (A)
                 (A) (A) (A) (A) (A) (A) (A) (A) (A) (A) (A) (A)
                 (A) (A) (A) (A) (A) (A) (A) (A) (A) (A) (A) (A)
                 (A) (A) (A) (A) (A) (A) (A) (A) (A) (A) (A) (A)
                 (A) (A) (A) (A) (A) (A) (A) (A) (A) (A) (A) (A)
                 (A) (A) (A) (A) (A) (A) (A) (A) (A) (A) (A) (A)
                 (A) (A) (A) (A) (A) (A) (A) (A) (A) (A) (A) (A)
                 (A) (A) (A) (A) (A) (A) (A) (A) (A) (A) (A) (A)
                 (A) (A) (A) (A) (A) (A) (A) (A) (A) (A) (A) (A)
                 (A) (A) (A) (A) (A) (A) (A) (A) (A) (A) (A) (A)
                 (A) (A) (A) (A) (A) (A) (A) (A) (A) (A) (A) (A)
                 (A) (A) (A) (A) (A) (A) (A) (A) (A) (A) (A) (A)
                 (A) (A) (A) (A) (A) (A) (A) (A) (A) (A) (A) (A)
                 (A) (A) (A) (A) (A) (A) (A) (A) (A) (A) (A) (A)
                 (A) (A) (A) (A) (A) (A) (A) (A) (A) (A) (A) (A)
                 (A) (A) (A) (A) (A) (A) (A) (A) (A) (A) (A) (A)
                 (A) (A) (A) (A) (A) (A) (A) (A) (A) (A) (A) (A)
                 (A) (A) (A) (A) (A) (A) (A) (A) (A) (A) (A) (A)
                 (A) (A) (A) (A) (A) (A) (A) (A) (A) (A) (A) (A)
                 (A) (A) (A) (A) (A) (A) (A) (A) (A) (A) (A) (A)
                 (A) (A) (A) (A) (A) (A) (A) (A) (A) (A) (A) (A)
                 (A) (A) (A) (A) (A) (A) (A) (A) (A) (A) (A) (A)
                 (A) (A) (A) (A) (A) (A) (A) (A) (A) (A) (A) (A)
                 (A) (A) (A) (A) (A) (A) (A) (A) (A) (A) (A) (A)
                 (A) (A) (A) (A) (A) (A) (A) (A) (A) (A) (A) (A)
                 (A) (A) (A) (A) (A) (A) (A) (A) (A) (A) (A) (A)
                 (A) (A) (A) (A) (A) (A) (A) (A) (A) (A) (A) (A)
                 (A) (A) (A) (A) (A) (A) (A) (A) (A) (A) (A) (A)
                 (A) (A) (A) (A) (A) (A) (A) (A) (A) (A) (A) (A)
                 (A) (A) (A) (A) (A) (A) (A) (A) (A) (A) (A) (A)
                 (A) (A) (A) (A) (A) (A) (A) (A) (A) (A) (A) (A)
                 (A) (A) (A) (A) (A) (A) (A) (A) (A) (A) (A) (A)
                 (A) (A) (A) (A) (A) (A) (A) (A) (A) (A) (A) (A)
                 (A) (A) (A) (A) (A) (A) (A) (A) (A) (A) (A) (A)
                 (A) (A) (A) (A) (A) (A) (A) (A) (A) (A) (A) (A)
                 (A) (A) (A) (A) (A) (A) (A) (A) (A) (A) (A) (A)
                 (A) (A) (A) (A) (A) (A) (A) (A) (A) (A) (A) (A)
                 (A) (A) (A) (A) (A) (A) (A) (A) (A) (A) (A) (A)
                 (A) (A) (A) (A) (A) (A) (A) (A) (A) (A) (A) (A)
                 (A) (A) (A) (A) (A) (A) (A) (A) (A) (A) (A) (A)
                 (A) (A) (A) (A) (A) (A) (A) (A) (A) (A) (A) (A)
                 (A) (A) (A) (A) (A) (A) (A) (A) (A) (A) (A) (A)
                 (A) (A) (A) (A) (A) (A) (A) (A) (A) (A) (A)
 The electronic state is 1-A.
 Alpha  occ. eigenvalues --  -77.07476 -77.07251 -19.17250 -19.06832 -19.05838
 Alpha  occ. eigenvalues --  -14.36954 -10.25765 -10.24791 -10.24715 -10.21751
 Alpha  occ. eigenvalues --  -10.20599 -10.20385 -10.20199 -10.20189 -10.20162
 Alpha  occ. eigenvalues --  -10.20141 -10.19637 -10.19610 -10.17448 -10.17348
 Alpha  occ. eigenvalues --  -10.17328 -10.17250 -10.17162 -10.17162 -10.17142
 Alpha  occ. eigenvalues --  -10.17081 -10.17061 -10.16885 -10.16798 -10.16311
 Alpha  occ. eigenvalues --   -6.56644  -6.56425  -4.73274  -4.73213  -4.73056
 Alpha  occ. eigenvalues --   -4.72990  -4.72925  -4.72709  -3.00283  -1.84953
 Alpha  occ. eigenvalues --   -1.83775  -1.83488  -1.08154  -0.94453  -0.89121
 Alpha  occ. eigenvalues --   -0.87417  -0.82274  -0.81526  -0.80003  -0.79934
 Alpha  occ. eigenvalues --   -0.79459  -0.79180  -0.73859  -0.70290  -0.67921
 Alpha  occ. eigenvalues --   -0.67739  -0.67652  -0.67382  -0.66941  -0.66825
 Alpha  occ. eigenvalues --   -0.66553  -0.66523  -0.64292  -0.62247  -0.59777
 Alpha  occ. eigenvalues --   -0.59246  -0.54205  -0.53875  -0.53580  -0.51557
 Alpha  occ. eigenvalues --   -0.51309  -0.50234  -0.49571  -0.47076  -0.47008
 Alpha  occ. eigenvalues --   -0.45623  -0.45509  -0.44800  -0.44572  -0.44368
 Alpha  occ. eigenvalues --   -0.44166  -0.43817  -0.43609  -0.43370  -0.43067
 Alpha  occ. eigenvalues --   -0.42577  -0.42509  -0.42291  -0.42058  -0.41590
 Alpha  occ. eigenvalues --   -0.41540  -0.41265  -0.41078  -0.40061  -0.39740
 Alpha  occ. eigenvalues --   -0.39000  -0.38752  -0.38423  -0.37708  -0.37319
 Alpha  occ. eigenvalues --   -0.37096  -0.37076  -0.36954  -0.36634  -0.36506
 Alpha  occ. eigenvalues --   -0.36199  -0.35846  -0.35397  -0.35378  -0.35074
 Alpha  occ. eigenvalues --   -0.34418  -0.34151  -0.33805  -0.33424  -0.32969
 Alpha  occ. eigenvalues --   -0.32587  -0.32313  -0.32094  -0.31835  -0.31546
 Alpha  occ. eigenvalues --   -0.30620  -0.29795  -0.29189  -0.29074  -0.28865
 Alpha  occ. eigenvalues --   -0.28087  -0.27053  -0.25895  -0.25104  -0.24584
 Alpha  occ. eigenvalues --   -0.21435  -0.19976  -0.16317
 Alpha virt. eigenvalues --   -0.05715  -0.02399  -0.00546   0.01891   0.02612
 Alpha virt. eigenvalues --    0.02962   0.04924   0.05518   0.06323   0.06504
 Alpha virt. eigenvalues --    0.07270   0.07629   0.07832   0.08019   0.08478
 Alpha virt. eigenvalues --    0.08902   0.09167   0.09653   0.10051   0.10123
 Alpha virt. eigenvalues --    0.10542   0.10815   0.11143   0.11292   0.11833
 Alpha virt. eigenvalues --    0.11935   0.12398   0.13187   0.13500   0.13599
 Alpha virt. eigenvalues --    0.13743   0.13901   0.14212   0.14285   0.14594
 Alpha virt. eigenvalues --    0.15004   0.15243   0.15599   0.16287   0.16546
 Alpha virt. eigenvalues --    0.16703   0.17192   0.17459   0.17661   0.17775
 Alpha virt. eigenvalues --    0.17963   0.18259   0.18614   0.19024   0.19492
 Alpha virt. eigenvalues --    0.20007   0.20407   0.20473   0.20775   0.20963
 Alpha virt. eigenvalues --    0.21418   0.21479   0.21655   0.21900   0.22138
 Alpha virt. eigenvalues --    0.22720   0.22858   0.23638   0.24278   0.24663
 Alpha virt. eigenvalues --    0.25012   0.25205   0.25712   0.26260   0.26373
 Alpha virt. eigenvalues --    0.26734   0.27447   0.27655   0.28332   0.28879
 Alpha virt. eigenvalues --    0.29317   0.30318   0.30795   0.32519   0.33384
 Alpha virt. eigenvalues --    0.34129   0.35566   0.36719   0.37590   0.38624
 Alpha virt. eigenvalues --    0.39747   0.39981   0.40307   0.40835   0.41012
 Alpha virt. eigenvalues --    0.41705   0.41928   0.42449   0.43033   0.43231
 Alpha virt. eigenvalues --    0.43542   0.44024   0.44540   0.45335   0.45572
 Alpha virt. eigenvalues --    0.46144   0.46841   0.47381   0.48334   0.49123
 Alpha virt. eigenvalues --    0.49470   0.50078   0.51146   0.52129   0.52742
 Alpha virt. eigenvalues --    0.53456   0.53751   0.54074   0.54471   0.54792
 Alpha virt. eigenvalues --    0.55023   0.55837   0.55936   0.56222   0.56726
 Alpha virt. eigenvalues --    0.57380   0.58190   0.58518   0.58928   0.59310
 Alpha virt. eigenvalues --    0.59929   0.60199   0.60797   0.61051   0.61346
 Alpha virt. eigenvalues --    0.61828   0.62074   0.62652   0.63102   0.63424
 Alpha virt. eigenvalues --    0.63739   0.63951   0.64236   0.64417   0.64579
 Alpha virt. eigenvalues --    0.65219   0.65576   0.65616   0.65822   0.66079
 Alpha virt. eigenvalues --    0.66345   0.66378   0.66777   0.66825   0.67228
 Alpha virt. eigenvalues --    0.67552   0.67877   0.67974   0.68476   0.68680
 Alpha virt. eigenvalues --    0.68945   0.69015   0.69249   0.69537   0.69618
 Alpha virt. eigenvalues --    0.70006   0.70255   0.70272   0.70494   0.71168
 Alpha virt. eigenvalues --    0.71424   0.71851   0.71956   0.72004   0.72699
 Alpha virt. eigenvalues --    0.72828   0.72915   0.73041   0.73440   0.73612
 Alpha virt. eigenvalues --    0.73790   0.74001   0.74261   0.74975   0.75265
 Alpha virt. eigenvalues --    0.75416   0.75880   0.76215   0.76406   0.76674
 Alpha virt. eigenvalues --    0.77184   0.77610   0.77815   0.78228   0.78670
 Alpha virt. eigenvalues --    0.79213   0.79506   0.80136   0.80707   0.80915
 Alpha virt. eigenvalues --    0.81037   0.81712   0.82093   0.82401   0.82522
 Alpha virt. eigenvalues --    0.83107   0.83720   0.84216   0.84463   0.84896
 Alpha virt. eigenvalues --    0.85291   0.86551   0.87351   0.87616   0.87922
 Alpha virt. eigenvalues --    0.89061   0.89532   0.90072   0.90750   0.92079
 Alpha virt. eigenvalues --    0.92452   0.92564   0.93961   0.94199   0.95322
 Alpha virt. eigenvalues --    0.96422   0.97014   0.98528   0.99266   1.00872
 Alpha virt. eigenvalues --    1.01078   1.02294   1.03105   1.03868   1.04812
 Alpha virt. eigenvalues --    1.05222   1.05663   1.06333   1.07053   1.07134
 Alpha virt. eigenvalues --    1.08303   1.08860   1.09534   1.09651   1.11120
 Alpha virt. eigenvalues --    1.12478   1.13163   1.13723   1.15437   1.16200
 Alpha virt. eigenvalues --    1.16447   1.16981   1.17848   1.18892   1.19453
 Alpha virt. eigenvalues --    1.20428   1.21055   1.21410   1.22011   1.22395
 Alpha virt. eigenvalues --    1.22498   1.23442   1.24393   1.24860   1.25123
 Alpha virt. eigenvalues --    1.26253   1.26853   1.27270   1.28272   1.28794
 Alpha virt. eigenvalues --    1.29332   1.30309   1.30578   1.31693   1.32481
 Alpha virt. eigenvalues --    1.33277   1.34422   1.34545   1.35427   1.37998
 Alpha virt. eigenvalues --    1.39733   1.40458   1.42312   1.43557   1.44265
 Alpha virt. eigenvalues --    1.47078   1.48366   1.49677   1.50518   1.51367
 Alpha virt. eigenvalues --    1.51802   1.52135   1.52953   1.53352   1.53903
 Alpha virt. eigenvalues --    1.54357   1.54778   1.55056   1.55585   1.56069
 Alpha virt. eigenvalues --    1.56493   1.56725   1.56905   1.57393   1.58019
 Alpha virt. eigenvalues --    1.58578   1.58954   1.59030   1.59235   1.59496
 Alpha virt. eigenvalues --    1.59906   1.60405   1.61152   1.61448   1.61872
 Alpha virt. eigenvalues --    1.62237   1.63052   1.64240   1.64929   1.65122
 Alpha virt. eigenvalues --    1.65574   1.66602   1.67647   1.67848   1.68245
 Alpha virt. eigenvalues --    1.68851   1.69115   1.69913   1.70554   1.71056
 Alpha virt. eigenvalues --    1.72162   1.72935   1.73770   1.75059   1.75829
 Alpha virt. eigenvalues --    1.76649   1.77398   1.77440   1.77716   1.77964
 Alpha virt. eigenvalues --    1.78155   1.78618   1.79216   1.79493   1.79892
 Alpha virt. eigenvalues --    1.80109   1.80458   1.80949   1.81015   1.81407
 Alpha virt. eigenvalues --    1.82007   1.82761   1.82936   1.83307   1.83805
 Alpha virt. eigenvalues --    1.84352   1.84564   1.84904   1.85112   1.85312
 Alpha virt. eigenvalues --    1.85564   1.85971   1.86382   1.86919   1.87141
 Alpha virt. eigenvalues --    1.87770   1.88561   1.88959   1.89746   1.90210
 Alpha virt. eigenvalues --    1.90749   1.91066   1.91247   1.91776   1.92413
 Alpha virt. eigenvalues --    1.92948   1.92986   1.93591   1.93812   1.93968
 Alpha virt. eigenvalues --    1.94350   1.94508   1.94981   1.95486   1.95674
 Alpha virt. eigenvalues --    1.96079   1.96373   1.96627   1.96744   1.97304
 Alpha virt. eigenvalues --    1.97661   1.98622   1.99091   1.99806   1.99860
 Alpha virt. eigenvalues --    2.00551   2.01064   2.01508   2.01691   2.02413
 Alpha virt. eigenvalues --    2.02638   2.02824   2.03440   2.04148   2.04534
 Alpha virt. eigenvalues --    2.04853   2.06450   2.08657   2.08997   2.09973
 Alpha virt. eigenvalues --    2.10755   2.11716   2.14329   2.15254   2.16052
 Alpha virt. eigenvalues --    2.16441   2.16876   2.17325   2.17871   2.18318
 Alpha virt. eigenvalues --    2.18428   2.18668   2.19306   2.19778   2.20211
 Alpha virt. eigenvalues --    2.20693   2.21070   2.21355   2.22094   2.22830
 Alpha virt. eigenvalues --    2.22995   2.23295   2.23708   2.24478   2.25173
 Alpha virt. eigenvalues --    2.25539   2.26740   2.28167   2.28809   2.29512
 Alpha virt. eigenvalues --    2.30868   2.34870   2.36453   2.37471   2.38341
 Alpha virt. eigenvalues --    2.39149   2.39247   2.39775   2.40526   2.41099
 Alpha virt. eigenvalues --    2.41588   2.42019   2.42577   2.43109   2.43307
 Alpha virt. eigenvalues --    2.43814   2.44452   2.45375   2.46012   2.46673
 Alpha virt. eigenvalues --    2.47473   2.48682   2.49122   2.50853   2.51534
 Alpha virt. eigenvalues --    2.52740   2.55418   2.55691   2.55953   2.56391
 Alpha virt. eigenvalues --    2.56602   2.56720   2.57418   2.57782   2.58783
 Alpha virt. eigenvalues --    2.61239   2.61864   2.62304   2.62437   2.62788
 Alpha virt. eigenvalues --    2.63100   2.63790   2.63964   2.64104   2.64460
 Alpha virt. eigenvalues --    2.64685   2.64996   2.65713   2.65942   2.66582
 Alpha virt. eigenvalues --    2.67668   2.68193   2.70922   2.72641   2.73231
 Alpha virt. eigenvalues --    2.73499   2.74065   2.74523   2.75797   2.78896
 Alpha virt. eigenvalues --    2.80713   2.81528   2.83414   2.85413   2.87525
 Alpha virt. eigenvalues --    2.87998   2.88041   2.88450   2.89150   2.89689
 Alpha virt. eigenvalues --    2.89834   2.90141   2.91028   2.91448   2.91917
 Alpha virt. eigenvalues --    2.93213   2.93354   2.94414   2.94736   2.95334
 Alpha virt. eigenvalues --    2.95784   2.96248   2.96778   2.96989   2.97369
 Alpha virt. eigenvalues --    2.97483   2.97886   2.98775   2.99394   3.00049
 Alpha virt. eigenvalues --    3.01755   3.02348   3.02629   3.03323   3.05078
 Alpha virt. eigenvalues --    3.05951   3.06633   3.06858   3.07626   3.08363
 Alpha virt. eigenvalues --    3.09022   3.09423   3.09983   3.10736   3.11380
 Alpha virt. eigenvalues --    3.11808   3.12444   3.14123   3.21456   3.22273
 Alpha virt. eigenvalues --    3.32834   3.54503   3.75367   3.81782   3.88973
 Alpha virt. eigenvalues --   45.28267
          Condensed to atoms (all electrons):
 Mulliken charges:
               1
     1  P    0.280409
     2  N   -0.226141
     3  C    0.036091
     4  H    0.061147
     5  H    0.091230
     6  O   -0.519923
     7  P    0.290413
     8  C    0.012619
     9  C   -0.001367
    10  H    0.017838
    11  C    0.072073
    12  H    0.033522
    13  C   -0.014363
    14  H    0.016996
    15  C    0.039701
    16  C    0.014099
    17  H    0.068033
    18  H    0.095723
    19  Ru  -0.251371
    20  H    0.163041
    21  C   -0.369644
    22  C   -0.383404
    23  C   -0.379556
    24  C   -0.391062
    25  C    0.079269
    26  H    0.016562
    27  H    0.048980
    28  H    0.017629
    29  C    0.083051
    30  H    0.012665
    31  H    0.034731
    32  H    0.010051
    33  C    0.079307
    34  H    0.009883
    35  H    0.035646
    36  H    0.026349
    37  C    0.077645
    38  H    0.010122
    39  H    0.009754
    40  H    0.023674
    41  C    0.071940
    42  H    0.013663
    43  H    0.033804
    44  H    0.033707
    45  C    0.061765
    46  H    0.026341
    47  H    0.034620
    48  H    0.015620
    49  C    0.077961
    50  H    0.003873
    51  H    0.009128
    52  H    0.002556
    53  C    0.079847
    54  H    0.006028
    55  H    0.032942
    56  H    0.024125
    57  C    0.064912
    58  H    0.020021
    59  H    0.043368
    60  H    0.009862
    61  C    0.082025
    62  H    0.038501
    63  H    0.018203
    64  H    0.009481
    65  C    0.078513
    66  H    0.008766
    67  H    0.009156
    68  H    0.020662
    69  C    0.071518
    70  H    0.011284
    71  H    0.035334
    72  H    0.030789
    73  O   -0.507864
    74  C    0.060431
    75  H    0.181324
    76  O   -0.145626
 Sum of Mulliken charges =  -0.00000
 Mulliken charges with hydrogens summed into heavy atoms:
               1
     1  P    0.280409
     2  N   -0.226141
     3  C    0.188467
     6  O   -0.356881
     7  P    0.290413
     8  C    0.012619
     9  C    0.016471
    11  C    0.105595
    13  C    0.002633
    15  C    0.039701
    16  C    0.177855
    19  Ru  -0.251371
    21  C   -0.369644
    22  C   -0.383404
    23  C   -0.379556
    24  C   -0.391062
    25  C    0.162440
    29  C    0.140498
    33  C    0.151185
    37  C    0.121195
    41  C    0.153114
    45  C    0.138346
    49  C    0.093518
    53  C    0.142942
    57  C    0.138163
    61  C    0.148210
    65  C    0.117097
    69  C    0.148925
    73  O   -0.326541
    74  C    0.060431
    76  O   -0.145626
 Electronic spatial extent (au):  <R**2>=          13418.9429
 Charge=             -0.0000 electrons
 Dipole moment (field-independent basis, Debye):
    X=              2.4492    Y=             12.7535    Z=             -0.4932  Tot=             12.9959
 Quadrupole moment (field-independent basis, Debye-Ang):
   XX=           -175.8590   YY=           -213.7194   ZZ=           -233.1810
   XY=             -3.2627   XZ=            -10.7563   YZ=              5.4299
 Traceless Quadrupole moment (field-independent basis, Debye-Ang):
   XX=             31.7275   YY=             -6.1329   ZZ=            -25.5946
   XY=             -3.2627   XZ=            -10.7563   YZ=              5.4299
 Octapole moment (field-independent basis, Debye-Ang**2):
  XXX=             14.7447  YYY=            114.8707  ZZZ=            -13.5276  XYY=             11.6922
  XXY=             -8.9471  XXZ=              0.3333  XZZ=             12.2518  YZZ=             -7.6207
  YYZ=            -13.4613  XYZ=              1.1169
 Hexadecapole moment (field-independent basis, Debye-Ang**3):
 XXXX=         -10377.7785 YYYY=          -3833.3684 ZZZZ=          -3411.7434 XXXY=            -10.6538
 XXXZ=            -34.4430 YYYX=             -4.9001 YYYZ=             55.8168 ZZZX=            -35.7743
 ZZZY=             28.6003 XXYY=          -2397.1658 XXZZ=          -2270.7114 YYZZ=          -1248.6576
 XXYZ=              3.1967 YYXZ=            -79.9669 ZZXY=            -11.3396
 N-N= 4.522865979903D+03 E-N=-1.370223526516D+04  KE= 1.921355380144D+03
 Unable to Open any file for archive entry.
 1\1\GINC-NODE091\SP\RB3LYP TD-FC\def2SVP\C24H45N1O3P2Ru1\DO57CIG\20-Se
 p-2024\0\\# td=(triplets,nstates=10,conver=3) b3lyp scrf=(smd,solvent=
 water) def2svp empiricaldispersion=gd3bj int=ultrafine scf=xqc\\A_Ru_T
 DDFT_B3LYP_def2SVP_smd_water_Interpol_Geom_1.1_S_T_10\\0,1\P,0,2.40145
 15,-0.19940783,-0.11653614\N,0,-0.0417056,1.45709914,-0.15991115\C,0,2
 .17684266,1.27599832,-1.21093877\H,0,3.10560021,1.85084086,-1.32393273
 \H,0,1.92065794,0.8398456,-2.19163214\O,0,-0.12698867,-0.95352372,-1.9
 8533833\P,0,-2.44022781,-0.13389154,0.13621616\C,0,1.06399807,2.130816
 76,-0.68118341\C,0,1.16283897,3.5064843,-0.65037318\H,0,2.0576877,3.96
 926312,-1.07394317\C,0,0.14264062,4.300649,-0.06991921\H,0,0.21170983,
 5.38851807,-0.03753096\C,0,-0.96830795,3.60791689,0.47751213\H,0,-1.79
 895085,4.15512666,0.93065105\C,0,-1.04039941,2.23162234,0.43061484\C,0
 ,-2.23444828,1.49330518,0.97970609\H,0,-3.14555958,2.10445086,0.917911
 96\H,0,-2.08372509,1.24191747,2.0443368\Ru,0,-0.03515366,-0.73847306,0
 .09003238\H,0,0.61429435,-1.51063641,-2.24393095\C,0,-3.27099703,0.236
 43078,-1.53875054\C,0,-3.60871586,-1.1381009,1.26145236\C,0,3.54404641
 ,-1.37820976,-1.09399388\C,0,3.2720763,0.40056297,1.46936053\C,0,2.471
 1174,1.58585945,2.04541457\H,0,2.56334609,2.4772144,1.41352985\H,0,1.4
 0413402,1.37843629,2.17738034\H,0,2.89040939,1.82745664,3.03535958\C,0
 ,3.32143418,-0.74597696,2.49978924\H,0,3.47618662,-0.31697776,3.502842
 78\H,0,2.39902608,-1.33896375,2.5309077\H,0,4.15219695,-1.43319955,2.3
 0465328\C,0,4.69740401,0.90769401,1.20115918\H,0,5.08756207,1.34999861
 ,2.13297104\H,0,5.38264886,0.10177074,0.91037489\H,0,4.71790341,1.6902
 485,0.42834355\C,0,4.66118628,-0.59932262,-1.80882198\H,0,5.30072954,-
 0.03226932,-1.12406888\H,0,5.3003342,-1.32505543,-2.33908416\H,0,4.255
 46616,0.09141408,-2.56170859\C,0,4.13805583,-2.43902927,-0.15677548\H,
 0,4.63524018,-3.20763167,-0.77059134\H,0,4.89212151,-2.0231797,0.52234
 6\H,0,3.36012548,-2.93856021,0.4403248\C,0,2.72671653,-2.10785405,-2.1
 6923342\H,0,1.93250402,-2.72701195,-1.72911553\H,0,2.30148359,-1.41183
 453,-2.90613029\H,0,3.40345479,-2.78239637,-2.71790939\C,0,-3.25746359
 ,-1.02312845,-2.42230455\H,0,-3.59331559,-0.74215905,-3.43474199\H,0,-
 2.24325835,-1.43533984,-2.49505471\H,0,-3.93781315,-1.80005175,-2.0552
 3848\C,0,-4.71207856,0.73980541,-1.3707937\H,0,-5.07924025,1.06003418,
 -2.3602921\H,0,-5.39139392,-0.04201357,-1.00787391\H,0,-4.77673272,1.6
 0800661,-0.698094\C,0,-2.46269391,1.34549769,-2.23772825\H,0,-2.516245
 08,2.29805469,-1.69311445\H,0,-1.40970542,1.07322523,-2.36082027\H,0,-
 2.90245256,1.505756,-3.23584035\C,0,-2.8097869,-1.67355409,2.45782148\
 H,0,-1.99563744,-2.34167779,2.14748543\H,0,-2.39572946,-0.86448778,3.0
 7248137\H,0,-3.49696034,-2.25315913,3.09547054\C,0,-4.74785946,-0.2655
 9365,1.81623153\H,0,-5.38790163,0.15865195,1.03559599\H,0,-5.38227354,
 -0.89710949,2.46051151\H,0,-4.36441103,0.55545932,2.43885142\C,0,-4.17
 588755,-2.33889639,0.49113627\H,0,-4.69787541,-2.99721241,1.20454002\H
 ,0,-4.90332959,-2.03968696,-0.27399128\H,0,-3.37964957,-2.9282528,0.01
 150931\O,0,-0.18846521,-2.72552894,0.07131682\C,0,0.0267522,-0.6366900
 7,1.92540883\H,0,-0.25065949,-2.87839415,-0.88841403\O,0,0.08261557,-0
 .58098941,3.08410409\\Version=ES64L-G16RevC.02\State=1-A\HF=-1998.9897
 372\RMSD=2.010e-09\PG=C01 [X(C24H45N1O3P2Ru1)]\\@
 The archive entry for this job was punched.


 WORK FAITHFULLY FOR EIGHT HOURS A DAY AND DON'T WORRY.
 IN TIME YOU MAY BECOME BOSS AND WORK TWELVE HOURS A DAY
 AND HAVE ALL THE WORRY.
 Job cpu time:       0 days  7 hours 18 minutes 57.4 seconds.
 Elapsed time:       0 days  0 hours 19 minutes 22.8 seconds.
 File lengths (MBytes):  RWF=   4043 Int=      0 D2E=      0 Chk=    186 Scr=      1
 Normal termination of Gaussian 16 at Fri Sep 20 05:17:45 2024.
