 Entering Gaussian System, Link 0=g16
 Input=A_Ru_Cis_straight_CO_DFT_B3LYP_def2SVP_smd_water_T_3MC_tweaked_geom_TDDFT_100.gjf
 Output=A_Ru_Cis_straight_CO_DFT_B3LYP_def2SVP_smd_water_T_3MC_tweaked_geom_TDDFT_100.log
 Initial command:
 /cluster/apps/gaussian/g16_c02/g16/l1.exe "/beegfs/do57cig/gauss2162977/Gau-3827606.inp" -scrdir="/beegfs/do57cig/gauss2162977/"
 Default CPUs for threads: 0-23
 Default is to use a total of  24 processors:
                               24 via shared-memory
                                1 via Linda
 Entering Link 1 = /cluster/apps/gaussian/g16_c02/g16/l1.exe PID=   3827607.
  
 Copyright (c) 1988-2021, Gaussian, Inc.  All Rights Reserved.
  
 This is part of the Gaussian(R) 16 program.  It is based on
 the Gaussian(R) 09 system (copyright 2009, Gaussian, Inc.),
 the Gaussian(R) 03 system (copyright 2003, Gaussian, Inc.),
 the Gaussian(R) 98 system (copyright 1998, Gaussian, Inc.),
 the Gaussian(R) 94 system (copyright 1995, Gaussian, Inc.),
 the Gaussian 92(TM) system (copyright 1992, Gaussian, Inc.),
 the Gaussian 90(TM) system (copyright 1990, Gaussian, Inc.),
 the Gaussian 88(TM) system (copyright 1988, Gaussian, Inc.),
 the Gaussian 86(TM) system (copyright 1986, Carnegie Mellon
 University), and the Gaussian 82(TM) system (copyright 1983,
 Carnegie Mellon University). Gaussian is a federally registered
 trademark of Gaussian, Inc.
  
 This software contains proprietary and confidential information,
 including trade secrets, belonging to Gaussian, Inc.
  
 This software is provided under written license and may be
 used, copied, transmitted, or stored only in accord with that
 written license.
  
 The following legend is applicable only to US Government
 contracts under FAR:
  
                    RESTRICTED RIGHTS LEGEND
  
 Use, reproduction and disclosure by the US Government is
 subject to restrictions as set forth in subparagraphs (a)
 and (c) of the Commercial Computer Software - Restricted
 Rights clause in FAR 52.227-19.
  
 Gaussian, Inc.
 340 Quinnipiac St., Bldg. 40, Wallingford CT 06492
  
  
 ---------------------------------------------------------------
 Warning -- This program may not be used in any manner that
 competes with the business of Gaussian, Inc. or will provide
 assistance to any competitor of Gaussian, Inc.  The licensee
 of this program is prohibited from giving any competitor of
 Gaussian, Inc. access to this program.  By using this program,
 the user acknowledges that Gaussian, Inc. is engaged in the
 business of creating and licensing software in the field of
 computational chemistry and represents and warrants to the
 licensee that it is not a competitor of Gaussian, Inc. and that
 it will not use this program in any manner prohibited above.
 ---------------------------------------------------------------
  

 Cite this work as:
 Gaussian 16, Revision C.02,
 M. J. Frisch, G. W. Trucks, H. B. Schlegel, G. E. Scuseria, 
 M. A. Robb, J. R. Cheeseman, G. Scalmani, V. Barone, 
 G. A. Petersson, H. Nakatsuji, X. Li, M. Caricato, A. V. Marenich, 
 J. Bloino, B. G. Janesko, R. Gomperts, B. Mennucci, H. P. Hratchian, 
 J. V. Ortiz, A. F. Izmaylov, J. L. Sonnenberg, D. Williams-Young, 
 F. Ding, F. Lipparini, F. Egidi, J. Goings, B. Peng, A. Petrone, 
 T. Henderson, D. Ranasinghe, V. G. Zakrzewski, J. Gao, N. Rega, 
 G. Zheng, W. Liang, M. Hada, M. Ehara, K. Toyota, R. Fukuda, 
 J. Hasegawa, M. Ishida, T. Nakajima, Y. Honda, O. Kitao, H. Nakai, 
 T. Vreven, K. Throssell, J. A. Montgomery, Jr., J. E. Peralta, 
 F. Ogliaro, M. J. Bearpark, J. J. Heyd, E. N. Brothers, K. N. Kudin, 
 V. N. Staroverov, T. A. Keith, R. Kobayashi, J. Normand, 
 K. Raghavachari, A. P. Rendell, J. C. Burant, S. S. Iyengar, 
 J. Tomasi, M. Cossi, J. M. Millam, M. Klene, C. Adamo, R. Cammi, 
 J. W. Ochterski, R. L. Martin, K. Morokuma, O. Farkas, 
 J. B. Foresman, and D. J. Fox, Gaussian, Inc., Wallingford CT, 2019.
 
 ******************************************
 Gaussian 16:  ES64L-G16RevC.02  7-Dec-2021
                26-Nov-2024 
 ******************************************
 %chk=A_Ru_Cis_straight_CO_DFT_B3LYP_def2SVP_smd_water_T_3MC_tweaked_geom_TDDFT_1
 00.chk
 %Oldchk=A_Ru_Cis_straight_CO_DFT_B3LYP_def2SVP_smd_water_T_3MC_tweaked_geom_Freq
 .chk
 SetSPE:  set environment variable "OMP_PROC_BIND" = "true"
 SetSPE:  set environment variable "OMP_PLACES" = "{0},{1},{2},{3},{4},{5},{6},{7},{8},{9},{10},{11},{12},{13},{14},{15},{16},{17},{18},{19},{20},{21},{22},{23}"
 Copying data from "A_Ru_Cis_straight_CO_DFT_B3LYP_def2SVP_smd_water_T_3MC_tweaked_geom_Freq.chk" to current chk file "A_Ru_Cis_straight_CO_DFT_B3LYP_def2SVP_smd_water_T_3MC_tweaked_geom_TDDFT_100.chk"
 IOpt=  2 FromEx=T IUOpen= 4 IOptOp= 5 NList=   0 IFRang= 0 IUIn= 4 IUOut= 2.
 ----------------------------------------------------------------------
 # td=(triplets,nstates=100,conver=3) ub3lyp scrf=(smd,solvent=water) d
 ef2svp empiricaldispersion=gd3bj int=ultrafine scf=xqc guess=read geom
 =check
 ----------------------------------------------------------------------
 1/29=2,38=1,172=1/1;
 2/12=2,40=1/2;
 3/5=43,7=101,11=2,14=-4,25=1,30=1,70=32201,72=1,74=-5,75=-5,116=2,124=41/1,2,3,8;
 4/5=1/1;
 5/5=2,8=3,13=1,38=6,53=1/2,8;
 8/6=1,10=1,108=100/1;
 9/9=3,41=100,42=1,48=3,70=2/14;
 6/7=2,8=2,9=2,10=2/1;
 99/5=1,9=1/99;
 ----------------------------------------------------------------------
 A_Ru_Cis_straight_CO_DFT_B3LYP_def2SVP_smd_water_T_3MC_tweaked_geom_TD
 DFT_100
 ----------------------------------------------------------------------
 Structure from the checkpoint file:  "A_Ru_Cis_straight_CO_DFT_B3LYP_def2SVP_smd_water_T_3MC_tweaked_geom_TDDFT_100.chk"
 Charge =  0 Multiplicity = 3
 Redundant internal coordinates found in file.  (old form).
 P,0,3.0192995592,0.1959807598,-0.2665744322
 N,0,0.607886491,1.9842045583,-0.2791440364
 C,0,2.7952126574,1.7212849165,-1.3018819036
 H,0,3.7241535918,2.2994426003,-1.3903722167
 H,0,2.5425131767,1.3453630015,-2.3074020754
 O,0,0.4269737069,-0.9018261111,-2.1535639108
 P,0,-1.8183017968,0.2612312601,-0.003184805
 C,0,1.6753881728,2.5965515587,-0.8048247539
 C,0,1.7478580084,3.993112112,-0.8734311133
 H,0,2.6248216694,4.4735134676,-1.3103548996
 C,0,0.6884956839,4.7436033462,-0.3617153138
 H,0,0.7194831739,5.8350417753,-0.3954326644
 C,0,-0.4086862056,4.087617596,0.1972710816
 H,0,-1.252872957,4.643689073,0.6083824527
 C,0,-0.4171886917,2.6871032958,0.2160194909
 C,0,-1.5763300554,1.9170550191,0.7966439862
 H,0,-2.490418286,2.5252605737,0.7696587613
 H,0,-1.3622524826,1.6974339829,1.8565702201
 Ru,0,0.5883274687,-0.6976379608,-0.0775731853
 H,0,1.2544772252,-1.2837177155,-2.4643400744
 C,0,-2.6614570942,0.6562182344,-1.6732230111
 C,0,-3.071105084,-0.5876416535,1.1656251843
 C,0,4.255560782,-0.8277366739,-1.3070594195
 C,0,3.8733682685,0.8068653528,1.3295877061
 C,0,2.9699106731,1.8847969324,1.9611487716
 H,0,2.9686825467,2.8115183264,1.3722960467
 H,0,1.9314132145,1.5592775871,2.0891150556
 H,0,3.3715575652,2.1289883063,2.9580478235
 C,0,4.0195598487,-0.3718543593,2.3127833225
 H,0,4.1760810773,0.0267788012,3.3284971698
 H,0,3.13252508,-1.01629871,2.341442494
 H,0,4.8840220371,-1.0003654506,2.0710785389
 C,0,5.2520866158,1.438110544,1.0909430277
 H,0,5.6151568372,1.8586757949,2.0442262156
 H,0,5.9944376426,0.702587492,0.7554429603
 H,0,5.2135690491,2.2610825983,0.3618034086
 C,0,5.3264213751,0.0362158348,-1.991791355
 H,0,5.9194317995,0.6289637333,-1.2865064941
 H,0,6.0193984615,-0.6309182231,-2.5320713417
 H,0,4.8858222816,0.7172855762,-2.7337298113
 C,0,4.9156863462,-1.894950988,-0.423233169
 H,0,5.4429756019,-2.6146443978,-1.0708610864
 H,0,5.6563062065,-1.4657499799,0.2630495547
 H,0,4.1718704473,-2.4544373897,0.1645570233
 C,0,3.4669228455,-1.5533505243,-2.4071630357
 H,0,2.7448839618,-2.2650987667,-1.9821272511
 H,0,2.9491703502,-0.8493897001,-3.0752698159
 H,0,4.1741233193,-2.128269024,-3.0269143375
 C,0,-2.7391712844,-0.631504357,-2.5138562068
 H,0,-3.0678168355,-0.3672078543,-3.533404471
 H,0,-1.7571954876,-1.1166456275,-2.5829061215
 H,0,-3.4641284714,-1.3492778906,-2.1130401955
 C,0,-4.0613760384,1.2676078705,-1.5302661121
 H,0,-4.4135510275,1.571810273,-2.5308787937
 H,0,-4.7920769254,0.5521883208,-1.1311751626
 H,0,-4.0624796436,2.1656923496,-0.8944507193
 C,0,-1.7755689473,1.6717391797,-2.4194617415
 H,0,-1.7835166375,2.6593604141,-1.9381744517
 H,0,-0.7368973747,1.3333504457,-2.5084837445
 H,0,-2.1818590859,1.7994941984,-3.4365367509
 C,0,-2.2935170909,-1.1440245127,2.3667119709
 H,0,-1.5675112396,-1.910029392,2.0625307865
 H,0,-1.763923221,-0.3576335487,2.9203633529
 H,0,-3.0111338125,-1.6130689832,3.0600930634
 C,0,-4.1424298883,0.3735363706,1.7052787238
 H,0,-4.7346093791,0.8489867934,0.9158416666
 H,0,-4.8365953334,-0.1998066274,2.3429390879
 H,0,-3.7019081415,1.1623704647,2.3317356078
 C,0,-3.7301202954,-1.7716654342,0.4439854295
 H,0,-4.2805738709,-2.3757575047,1.1840216851
 H,0,-4.4501597698,-1.4492353932,-0.3189674225
 H,0,-2.9819534877,-2.4245460954,-0.0316201169
 O,0,0.5983150619,-2.7792393965,-0.1436700613
 C,0,0.6858434462,-0.6078232934,1.7382327556
 H,0,0.5208699473,-2.8480111804,-1.1110167558
 O,0,0.7702246578,-0.5685856324,2.9065562448
 Recover connectivity data from disk.
                           ----------------------------
                           !    Current Parameters    !
                           ! (Angstroms and Degrees)  !
 --------------------------                            --------------------------
 ! Name  Definition              Value                                          !
 --------------------------------------------------------------------------------
 ! R1    R(1,3)                  1.857                                          !
 ! R2    R(1,19)                 2.5969                                         !
 ! R3    R(1,23)                 1.9128                                         !
 ! R4    R(1,24)                 1.9106                                         !
 ! R5    R(2,8)                  1.3382                                         !
 ! R6    R(2,15)                 1.3379                                         !
 ! R7    R(3,4)                  1.0977                                         !
 ! R8    R(3,5)                  1.1028                                         !
 ! R9    R(3,8)                  1.5057                                         !
 ! R10   R(6,20)                 0.9629                                         !
 ! R11   R(6,51)                 2.2363                                         !
 ! R12   R(7,16)                 1.8547                                         !
 ! R13   R(7,21)                 1.9121                                         !
 ! R14   R(7,22)                 1.9121                                         !
 ! R15   R(8,9)                  1.4001                                         !
 ! R16   R(9,10)                 1.0912                                         !
 ! R17   R(9,11)                 1.3955                                         !
 ! R18   R(11,12)                1.0924                                         !
 ! R19   R(11,13)                1.3952                                         !
 ! R20   R(13,14)                1.0913                                         !
 ! R21   R(13,15)                1.4007                                         !
 ! R22   R(15,16)                1.5079                                         !
 ! R23   R(16,17)                1.0983                                         !
 ! R24   R(16,18)                1.1034                                         !
 ! R25   R(19,73)                2.0827                                         !
 ! R26   R(19,74)                1.8206                                         !
 ! R27   R(20,75)                2.1947                                         !
 ! R28   R(21,49)                1.5398                                         !
 ! R29   R(21,53)                1.5343                                         !
 ! R30   R(21,57)                1.5404                                         !
 ! R31   R(22,61)                1.5352                                         !
 ! R32   R(22,65)                1.5371                                         !
 ! R33   R(22,69)                1.5352                                         !
 ! R34   R(23,37)                1.5369                                         !
 ! R35   R(23,41)                1.5349                                         !
 ! R36   R(23,45)                1.5358                                         !
 ! R37   R(24,25)                1.5418                                         !
 ! R38   R(24,29)                1.5419                                         !
 ! R39   R(24,33)                1.535                                          !
 ! R40   R(25,26)                1.098                                          !
 ! R41   R(25,27)                1.0958                                         !
 ! R42   R(25,28)                1.1022                                         !
 ! R43   R(29,30)                1.1023                                         !
 ! R44   R(29,31)                1.0968                                         !
 ! R45   R(29,32)                1.0958                                         !
 ! R46   R(33,34)                1.1034                                         !
 ! R47   R(33,35)                1.0976                                         !
 ! R48   R(33,36)                1.1002                                         !
 ! R49   R(37,38)                1.0956                                         !
 ! R50   R(37,39)                1.1033                                         !
 ! R51   R(37,40)                1.0993                                         !
 ! R52   R(41,42)                1.1025                                         !
 ! R53   R(41,43)                1.0971                                         !
 ! R54   R(41,44)                1.1008                                         !
 ! R55   R(45,46)                1.0994                                         !
 ! R56   R(45,47)                1.1                                            !
 ! R57   R(45,48)                1.1022                                         !
 ! R58   R(49,50)                1.1033                                         !
 ! R59   R(49,51)                1.0975                                         !
 ! R60   R(49,52)                1.0961                                         !
 ! R61   R(53,54)                1.1035                                         !
 ! R62   R(53,55)                1.0977                                         !
 ! R63   R(53,56)                1.1004                                         !
 ! R64   R(57,58)                1.0987                                         !
 ! R65   R(57,59)                1.096                                          !
 ! R66   R(57,60)                1.1026                                         !
 ! R67   R(61,62)                1.0984                                         !
 ! R68   R(61,63)                1.0979                                         !
 ! R69   R(61,64)                1.1026                                         !
 ! R70   R(65,66)                1.0954                                         !
 ! R71   R(65,67)                1.1033                                         !
 ! R72   R(65,68)                1.0994                                         !
 ! R73   R(69,70)                1.1025                                         !
 ! R74   R(69,71)                1.0975                                         !
 ! R75   R(69,72)                1.101                                          !
 ! R76   R(73,75)                0.9729                                         !
 ! R77   R(74,76)                1.172                                          !
 ! A1    A(3,1,19)             102.1372                                         !
 ! A2    A(3,1,23)             102.3752                                         !
 ! A3    A(3,1,24)             104.8966                                         !
 ! A4    A(19,1,23)            117.4148                                         !
 ! A5    A(19,1,24)            117.8837                                         !
 ! A6    A(23,1,24)            109.6724                                         !
 ! A7    A(8,2,15)             121.0747                                         !
 ! A8    A(1,3,4)              112.0504                                         !
 ! A9    A(1,3,5)              104.8317                                         !
 ! A10   A(1,3,8)              112.5295                                         !
 ! A11   A(4,3,5)              107.4536                                         !
 ! A12   A(4,3,8)              110.4757                                         !
 ! A13   A(5,3,8)              109.191                                          !
 ! A14   A(20,6,51)            137.6705                                         !
 ! A15   A(16,7,21)            104.4633                                         !
 ! A16   A(16,7,22)            102.604                                          !
 ! A17   A(21,7,22)            109.6749                                         !
 ! A18   A(2,8,3)              117.1902                                         !
 ! A19   A(2,8,9)              121.128                                          !
 ! A20   A(3,8,9)              121.6783                                         !
 ! A21   A(8,9,10)             120.0226                                         !
 ! A22   A(8,9,11)             118.6316                                         !
 ! A23   A(10,9,11)            121.3424                                         !
 ! A24   A(9,11,12)            120.2968                                         !
 ! A25   A(9,11,13)            119.4092                                         !
 ! A26   A(12,11,13)           120.2937                                         !
 ! A27   A(11,13,14)           121.3116                                         !
 ! A28   A(11,13,15)           118.7023                                         !
 ! A29   A(14,13,15)           119.9847                                         !
 ! A30   A(2,15,13)            121.0446                                         !
 ! A31   A(2,15,16)            117.5929                                         !
 ! A32   A(13,15,16)           121.3623                                         !
 ! A33   A(7,16,15)            112.9639                                         !
 ! A34   A(7,16,17)            112.0377                                         !
 ! A35   A(7,16,18)            105.1806                                         !
 ! A36   A(15,16,17)           110.3367                                         !
 ! A37   A(15,16,18)           108.8074                                         !
 ! A38   A(17,16,18)           107.1759                                         !
 ! A39   A(1,19,73)            109.7023                                         !
 ! A40   A(1,19,74)             90.3135                                         !
 ! A41   A(73,19,74)            94.6289                                         !
 ! A42   A(6,20,75)             78.2528                                         !
 ! A43   A(7,21,49)            109.0465                                         !
 ! A44   A(7,21,53)            113.7839                                         !
 ! A45   A(7,21,57)            107.8006                                         !
 ! A46   A(49,21,53)           109.7595                                         !
 ! A47   A(49,21,57)           108.4138                                         !
 ! A48   A(53,21,57)           107.8885                                         !
 ! A49   A(7,22,61)            107.8946                                         !
 ! A50   A(7,22,65)            113.1812                                         !
 ! A51   A(7,22,69)            109.6518                                         !
 ! A52   A(61,22,65)           107.756                                          !
 ! A53   A(61,22,69)           107.7983                                         !
 ! A54   A(65,22,69)           110.371                                          !
 ! A55   A(1,23,37)            113.0677                                         !
 ! A56   A(1,23,41)            109.6855                                         !
 ! A57   A(1,23,45)            108.0962                                         !
 ! A58   A(37,23,41)           110.3493                                         !
 ! A59   A(37,23,45)           107.7131                                         !
 ! A60   A(41,23,45)           107.7466                                         !
 ! A61   A(1,24,25)            107.6871                                         !
 ! A62   A(1,24,29)            109.3096                                         !
 ! A63   A(1,24,33)            113.7724                                         !
 ! A64   A(25,24,29)           109.1979                                         !
 ! A65   A(25,24,33)           107.6074                                         !
 ! A66   A(29,24,33)           109.1684                                         !
 ! A67   A(24,25,26)           111.7815                                         !
 ! A68   A(24,25,27)           113.2962                                         !
 ! A69   A(24,25,28)           108.172                                          !
 ! A70   A(26,25,27)           108.1973                                         !
 ! A71   A(26,25,28)           107.3672                                         !
 ! A72   A(27,25,28)           107.7911                                         !
 ! A73   A(24,29,30)           108.9395                                         !
 ! A74   A(24,29,31)           112.9021                                         !
 ! A75   A(24,29,32)           111.8774                                         !
 ! A76   A(30,29,31)           107.6527                                         !
 ! A77   A(30,29,32)           107.3768                                         !
 ! A78   A(31,29,32)           107.8648                                         !
 ! A79   A(24,33,34)           108.5405                                         !
 ! A80   A(24,33,35)           112.2987                                         !
 ! A81   A(24,33,36)           112.2842                                         !
 ! A82   A(34,33,35)           107.2756                                         !
 ! A83   A(34,33,36)           107.3968                                         !
 ! A84   A(35,33,36)           108.807                                          !
 ! A85   A(23,37,38)           113.2317                                         !
 ! A86   A(23,37,39)           108.4159                                         !
 ! A87   A(23,37,40)           111.6977                                         !
 ! A88   A(38,37,39)           107.6025                                         !
 ! A89   A(38,37,40)           108.4338                                         !
 ! A90   A(39,37,40)           107.2097                                         !
 ! A91   A(23,41,42)           108.744                                          !
 ! A92   A(23,41,43)           112.2416                                         !
 ! A93   A(23,41,44)           111.7312                                         !
 ! A94   A(42,41,43)           107.4558                                         !
 ! A95   A(42,41,44)           107.7616                                         !
 ! A96   A(43,41,44)           108.7205                                         !
 ! A97   A(23,45,46)           111.4818                                         !
 ! A98   A(23,45,47)           111.9872                                         !
 ! A99   A(23,45,48)           108.6476                                         !
 ! A100  A(46,45,47)           109.8777                                         !
 ! A101  A(46,45,48)           107.5243                                         !
 ! A102  A(47,45,48)           107.1162                                         !
 ! A103  A(21,49,50)           108.6138                                         !
 ! A104  A(21,49,51)           111.0318                                         !
 ! A105  A(21,49,52)           112.42                                           !
 ! A106  A(50,49,51)           108.3171                                         !
 ! A107  A(50,49,52)           107.3234                                         !
 ! A108  A(51,49,52)           108.9857                                         !
 ! A109  A(6,51,49)            145.0218                                         !
 ! A110  A(21,53,54)           108.4543                                         !
 ! A111  A(21,53,55)           112.4281                                         !
 ! A112  A(21,53,56)           112.3327                                         !
 ! A113  A(54,53,55)           107.2701                                         !
 ! A114  A(54,53,56)           107.3749                                         !
 ! A115  A(55,53,56)           108.734                                          !
 ! A116  A(21,57,58)           112.1005                                         !
 ! A117  A(21,57,59)           112.3836                                         !
 ! A118  A(21,57,60)           108.1386                                         !
 ! A119  A(58,57,59)           108.661                                          !
 ! A120  A(58,57,60)           107.2924                                         !
 ! A121  A(59,57,60)           108.0615                                         !
 ! A122  A(22,61,62)           111.7702                                         !
 ! A123  A(22,61,63)           112.2882                                         !
 ! A124  A(22,61,64)           108.4522                                         !
 ! A125  A(62,61,63)           108.6838                                         !
 ! A126  A(62,61,64)           107.9195                                         !
 ! A127  A(63,61,64)           107.5487                                         !
 ! A128  A(22,65,66)           113.2763                                         !
 ! A129  A(22,65,67)           108.45                                           !
 ! A130  A(22,65,68)           111.6805                                         !
 ! A131  A(66,65,67)           107.5748                                         !
 ! A132  A(66,65,68)           108.4107                                         !
 ! A133  A(67,65,68)           107.1958                                         !
 ! A134  A(22,69,70)           108.7461                                         !
 ! A135  A(22,69,71)           112.446                                          !
 ! A136  A(22,69,72)           111.6344                                         !
 ! A137  A(70,69,71)           107.4592                                         !
 ! A138  A(70,69,72)           107.7165                                         !
 ! A139  A(71,69,72)           108.6469                                         !
 ! A140  A(19,73,75)            95.8444                                         !
 ! A141  A(20,75,73)           122.421                                          !
 ! A142  L(19,74,76,11,-1)     180.8827                                         !
 ! A143  L(19,74,76,11,-2)     181.1404                                         !
 ! D1    D(19,1,3,4)           173.5109                                         !
 ! D2    D(19,1,3,5)           -70.2565                                         !
 ! D3    D(19,1,3,8)            48.2977                                         !
 ! D4    D(23,1,3,4)           -64.5278                                         !
 ! D5    D(23,1,3,5)            51.7048                                         !
 ! D6    D(23,1,3,8)           170.2589                                         !
 ! D7    D(24,1,3,4)            49.9916                                         !
 ! D8    D(24,1,3,5)           166.2242                                         !
 ! D9    D(24,1,3,8)           -75.2217                                         !
 ! D10   D(3,1,19,73)          142.7796                                         !
 ! D11   D(3,1,19,74)         -122.1902                                         !
 ! D12   D(23,1,19,73)          31.7719                                         !
 ! D13   D(23,1,19,74)         126.8021                                         !
 ! D14   D(24,1,19,73)        -102.9349                                         !
 ! D15   D(24,1,19,74)          -7.9047                                         !
 ! D16   D(3,1,23,37)           37.8087                                         !
 ! D17   D(3,1,23,41)          161.4359                                         !
 ! D18   D(3,1,23,45)          -81.3393                                         !
 ! D19   D(19,1,23,37)         148.6812                                         !
 ! D20   D(19,1,23,41)         -87.6915                                         !
 ! D21   D(19,1,23,45)          29.5333                                         !
 ! D22   D(24,1,23,37)         -73.1655                                         !
 ! D23   D(24,1,23,41)          50.4618                                         !
 ! D24   D(24,1,23,45)         167.6866                                         !
 ! D25   D(3,1,24,25)           57.4999                                         !
 ! D26   D(3,1,24,29)          176.0191                                         !
 ! D27   D(3,1,24,33)          -61.6702                                         !
 ! D28   D(19,1,24,25)         -55.2616                                         !
 ! D29   D(19,1,24,29)          63.2577                                         !
 ! D30   D(19,1,24,33)        -174.4316                                         !
 ! D31   D(23,1,24,25)         166.806                                          !
 ! D32   D(23,1,24,29)         -74.6748                                         !
 ! D33   D(23,1,24,33)          47.6359                                         !
 ! D34   D(15,2,8,3)           178.3439                                         !
 ! D35   D(15,2,8,9)            -0.9802                                         !
 ! D36   D(8,2,15,13)            0.1783                                         !
 ! D37   D(8,2,15,16)         -179.652                                          !
 ! D38   D(1,3,8,2)            -34.9228                                         !
 ! D39   D(1,3,8,9)            144.3973                                         !
 ! D40   D(4,3,8,2)           -160.9908                                         !
 ! D41   D(4,3,8,9)             18.3293                                         !
 ! D42   D(5,3,8,2)             81.042                                          !
 ! D43   D(5,3,8,9)            -99.6379                                         !
 ! D44   D(51,6,20,75)         -78.9787                                         !
 ! D45   D(20,6,51,49)        -158.3649                                         !
 ! D46   D(21,7,16,15)         -77.0185                                         !
 ! D47   D(21,7,16,17)          48.3422                                         !
 ! D48   D(21,7,16,18)         164.4418                                         !
 ! D49   D(22,7,16,15)         168.5275                                         !
 ! D50   D(22,7,16,17)         -66.1118                                         !
 ! D51   D(22,7,16,18)          49.9878                                         !
 ! D52   D(16,7,21,49)         172.3371                                         !
 ! D53   D(16,7,21,53)         -64.775                                          !
 ! D54   D(16,7,21,57)          54.8324                                         !
 ! D55   D(22,7,21,49)         -78.3                                            !
 ! D56   D(22,7,21,53)          44.588                                          !
 ! D57   D(22,7,21,57)         164.1954                                         !
 ! D58   D(16,7,22,61)         -80.8948                                         !
 ! D59   D(16,7,22,65)          38.2408                                         !
 ! D60   D(16,7,22,69)         161.9518                                         !
 ! D61   D(21,7,22,61)         168.5111                                         !
 ! D62   D(21,7,22,65)         -72.3533                                         !
 ! D63   D(21,7,22,69)          51.3577                                         !
 ! D64   D(2,8,9,10)          -179.6925                                         !
 ! D65   D(2,8,9,11)             0.972                                          !
 ! D66   D(3,8,9,10)             1.0139                                         !
 ! D67   D(3,8,9,11)          -178.3215                                         !
 ! D68   D(8,9,11,12)          179.6149                                         !
 ! D69   D(8,9,11,13)           -0.1796                                         !
 ! D70   D(10,9,11,12)           0.2886                                         !
 ! D71   D(10,9,11,13)        -179.5059                                         !
 ! D72   D(9,11,13,14)         179.8633                                         !
 ! D73   D(9,11,13,15)          -0.577                                          !
 ! D74   D(12,11,13,14)          0.0689                                         !
 ! D75   D(12,11,13,15)        179.6286                                         !
 ! D76   D(11,13,15,2)           0.6024                                         !
 ! D77   D(11,13,15,16)       -179.5737                                         !
 ! D78   D(14,13,15,2)        -179.8319                                         !
 ! D79   D(14,13,15,16)         -0.008                                          !
 ! D80   D(2,15,16,7)          -29.621                                          !
 ! D81   D(2,15,16,17)        -155.8954                                         !
 ! D82   D(2,15,16,18)          86.7865                                         !
 ! D83   D(13,15,16,7)         150.5493                                         !
 ! D84   D(13,15,16,17)         24.2749                                         !
 ! D85   D(13,15,16,18)        -93.0432                                         !
 ! D86   D(1,19,73,75)         -89.5196                                         !
 ! D87   D(74,19,73,75)        178.4847                                         !
 ! D88   D(6,20,75,73)         -78.0315                                         !
 ! D89   D(7,21,49,50)        -170.5972                                         !
 ! D90   D(7,21,49,51)         -51.5982                                         !
 ! D91   D(7,21,49,52)          70.7925                                         !
 ! D92   D(53,21,49,50)         64.1381                                         !
 ! D93   D(53,21,49,51)       -176.8629                                         !
 ! D94   D(53,21,49,52)        -54.4723                                         !
 ! D95   D(57,21,49,50)        -53.4808                                         !
 ! D96   D(57,21,49,51)         65.5182                                         !
 ! D97   D(57,21,49,52)       -172.0912                                         !
 ! D98   D(7,21,53,54)         173.2371                                         !
 ! D99   D(7,21,53,55)         -68.3177                                         !
 ! D100  D(7,21,53,56)          54.7197                                         !
 ! D101  D(49,21,53,54)        -64.2663                                         !
 ! D102  D(49,21,53,55)         54.1789                                         !
 ! D103  D(49,21,53,56)        177.2163                                         !
 ! D104  D(57,21,53,54)         53.6795                                         !
 ! D105  D(57,21,53,55)        172.1247                                         !
 ! D106  D(57,21,53,56)        -64.8379                                         !
 ! D107  D(7,21,57,58)         -69.5138                                         !
 ! D108  D(7,21,57,59)          53.2186                                         !
 ! D109  D(7,21,57,60)         172.4115                                         !
 ! D110  D(49,21,57,58)        172.573                                          !
 ! D111  D(49,21,57,59)        -64.6945                                         !
 ! D112  D(49,21,57,60)         54.4983                                         !
 ! D113  D(53,21,57,58)         53.7652                                         !
 ! D114  D(53,21,57,59)        176.4976                                         !
 ! D115  D(53,21,57,60)        -64.3095                                         !
 ! D116  D(7,22,61,62)         -62.5993                                         !
 ! D117  D(7,22,61,63)          59.8461                                         !
 ! D118  D(7,22,61,64)         178.5505                                         !
 ! D119  D(65,22,61,62)        174.871                                          !
 ! D120  D(65,22,61,63)        -62.6835                                         !
 ! D121  D(65,22,61,64)         56.0208                                         !
 ! D122  D(69,22,61,62)         55.7483                                         !
 ! D123  D(69,22,61,63)        178.1938                                         !
 ! D124  D(69,22,61,64)        -63.1019                                         !
 ! D125  D(7,22,65,66)          59.0282                                         !
 ! D126  D(7,22,65,67)         178.3708                                         !
 ! D127  D(7,22,65,68)         -63.7237                                         !
 ! D128  D(61,22,65,66)        178.2435                                         !
 ! D129  D(61,22,65,67)        -62.4138                                         !
 ! D130  D(61,22,65,68)         55.4917                                         !
 ! D131  D(69,22,65,66)        -64.2873                                         !
 ! D132  D(69,22,65,67)         55.0553                                         !
 ! D133  D(69,22,65,68)        172.9609                                         !
 ! D134  D(7,22,69,70)         168.0788                                         !
 ! D135  D(7,22,69,71)         -73.0394                                         !
 ! D136  D(7,22,69,72)          49.373                                          !
 ! D137  D(61,22,69,70)         50.865                                          !
 ! D138  D(61,22,69,71)        169.7467                                         !
 ! D139  D(61,22,69,72)        -67.8409                                         !
 ! D140  D(65,22,69,70)        -66.5782                                         !
 ! D141  D(65,22,69,71)         52.3036                                         !
 ! D142  D(65,22,69,72)        174.716                                          !
 ! D143  D(1,23,37,38)          58.2859                                         !
 ! D144  D(1,23,37,39)         177.6124                                         !
 ! D145  D(1,23,37,40)         -64.4762                                         !
 ! D146  D(41,23,37,38)        -64.9752                                         !
 ! D147  D(41,23,37,39)         54.3513                                         !
 ! D148  D(41,23,37,40)        172.2627                                         !
 ! D149  D(45,23,37,38)        177.6547                                         !
 ! D150  D(45,23,37,39)        -63.0188                                         !
 ! D151  D(45,23,37,40)         54.8927                                         !
 ! D152  D(1,23,41,42)         167.2916                                         !
 ! D153  D(1,23,41,43)         -73.9576                                         !
 ! D154  D(1,23,41,44)          48.4728                                         !
 ! D155  D(37,23,41,42)        -67.5014                                         !
 ! D156  D(37,23,41,43)         51.2494                                         !
 ! D157  D(37,23,41,44)        173.6798                                         !
 ! D158  D(45,23,41,42)         49.848                                          !
 ! D159  D(45,23,41,43)        168.5989                                         !
 ! D160  D(45,23,41,44)        -68.9708                                         !
 ! D161  D(1,23,45,46)         -62.965                                          !
 ! D162  D(1,23,45,47)          60.6051                                         !
 ! D163  D(1,23,45,48)         178.7197                                         !
 ! D164  D(37,23,45,46)        174.549                                          !
 ! D165  D(37,23,45,47)        -61.8809                                         !
 ! D166  D(37,23,45,48)         56.2337                                         !
 ! D167  D(41,23,45,46)         55.5034                                         !
 ! D168  D(41,23,45,47)        179.0734                                         !
 ! D169  D(41,23,45,48)        -62.812                                          !
 ! D170  D(1,24,25,26)         -70.768                                          !
 ! D171  D(1,24,25,27)          51.7941                                         !
 ! D172  D(1,24,25,28)         171.2313                                         !
 ! D173  D(29,24,25,26)        170.6409                                         !
 ! D174  D(29,24,25,27)        -66.7969                                         !
 ! D175  D(29,24,25,28)         52.6403                                         !
 ! D176  D(33,24,25,26)         52.2638                                         !
 ! D177  D(33,24,25,27)        174.826                                          !
 ! D178  D(33,24,25,28)        -65.7368                                         !
 ! D179  D(1,24,29,30)        -160.5241                                         !
 ! D180  D(1,24,29,31)         -40.9858                                         !
 ! D181  D(1,24,29,32)          80.9185                                         !
 ! D182  D(25,24,29,30)        -42.9505                                         !
 ! D183  D(25,24,29,31)         76.5878                                         !
 ! D184  D(25,24,29,32)       -161.5079                                         !
 ! D185  D(33,24,29,30)         74.446                                          !
 ! D186  D(33,24,29,31)       -166.0157                                         !
 ! D187  D(33,24,29,32)        -44.1114                                         !
 ! D188  D(1,24,33,34)         173.7937                                         !
 ! D189  D(1,24,33,35)         -67.7765                                         !
 ! D190  D(1,24,33,36)          55.2225                                         !
 ! D191  D(25,24,33,34)         54.5783                                         !
 ! D192  D(25,24,33,35)        173.0081                                         !
 ! D193  D(25,24,33,36)        -63.9929                                         !
 ! D194  D(29,24,33,34)        -63.8178                                         !
 ! D195  D(29,24,33,35)         54.612                                          !
 ! D196  D(29,24,33,36)        177.611                                          !
 ! D197  D(21,49,51,6)          -8.9891                                         !
 ! D198  D(50,49,51,6)         110.188                                          !
 ! D199  D(52,49,51,6)        -133.3503                                         !
 ! D200  D(19,73,75,20)         27.3588                                         !
 --------------------------------------------------------------------------------
 Stoichiometry    C24H45NO3P2Ru(3)
 Framework group  C1[X(C24H45NO3P2Ru)]
 Deg. of freedom   222
 Full point group                 C1      NOp   1
 Largest Abelian subgroup         C1      NOp   1
 Largest concise Abelian subgroup C1      NOp   1
                         Standard orientation:                         
 ---------------------------------------------------------------------
 Center     Atomic      Atomic             Coordinates (Angstroms)
 Number     Number       Type             X           Y           Z
 ---------------------------------------------------------------------
      1         15           0        2.412868   -0.094449   -0.144265
      2          7           0       -0.014745    1.670110   -0.067832
      3          6           0        2.188930    1.497128   -1.074514
      4          1           0        3.113566    2.087781   -1.109246
      5          1           0        1.953738    1.189827   -2.107226
      6          8           0       -0.142639   -1.080228   -2.140182
      7         15           0       -2.428322   -0.088089    0.052854
      8          6           0        1.054182    2.326380   -0.534279
      9          6           0        1.114542    3.724890   -0.504876
     10          1           0        1.992958    4.241783   -0.894696
     11          6           0        0.041210    4.429160    0.042209
     12          1           0        0.062461    5.520526    0.084666
     13          6           0       -1.057448    3.726797    0.538424
     14          1           0       -1.912420    4.245906    0.974803
     15          6           0       -1.053120    2.328339    0.459942
     16          6           0       -2.212963    1.510172    0.968938
     17          1           0       -3.132233    2.111120    0.970919
     18          1           0       -2.011577    1.219289    2.014087
     19         44           0       -0.012036   -1.019326   -0.052911
     20          1           0        0.692632   -1.432690   -2.464648
     21          6           0       -3.251867    0.414832   -1.597843
     22          6           0       -3.689242   -1.026507    1.141738
     23          6           0        3.672968   -1.033084   -1.235163
     24          6           0        3.238950    0.411260    1.502610
     25          6           0        2.316777    1.435151    2.194192
     26          1           0        2.315062    2.400477    1.671025
     27          1           0        1.279690    1.092861    2.284222
     28          1           0        2.702246    1.612888    3.211336
     29          6           0        3.382488   -0.831614    2.403768
     30          1           0        3.521161   -0.503169    3.446828
     31          1           0        2.501202   -1.483887    2.374833
     32          1           0        4.256058   -1.434578    2.131644
     33          6           0        4.614888    1.069055    1.328299
     34          1           0        4.960743    1.425440    2.313600
     35          1           0        5.368667    0.364833    0.953429
     36          1           0        4.578807    1.940314    0.657466
     37          6           0        4.745110   -0.114754   -1.842777
     38          1           0        5.322707    0.432533   -1.089586
     39          1           0        5.451726   -0.736950   -2.417890
     40          1           0        4.308508    0.612477   -2.542041
     41          6           0        4.330706   -2.153531   -0.417947
     42          1           0        4.873638   -2.822089   -1.106183
     43          1           0        5.057683   -1.766837    0.307096
     44          1           0        3.584063   -2.758676    0.118810
     45          6           0        2.906494   -1.687136   -2.394227
     46          1           0        2.185308   -2.432688   -2.030052
     47          1           0        2.391510   -0.942841   -3.019376
     48          1           0        3.627573   -2.211705   -3.042014
     49          6           0       -3.305865   -0.812024   -2.526736
     50          1           0       -3.622781   -0.480335   -3.530174
     51          1           0       -2.318534   -1.282973   -2.614999
     52          1           0       -4.029577   -1.561929   -2.187181
     53          6           0       -4.659288    1.003095   -1.433168
     54          1           0       -5.000366    1.373080   -2.415293
     55          1           0       -5.388741    0.255610   -1.095253
     56          1           0       -4.677611    1.854828   -0.736724
     57          6           0       -2.365234    1.487083   -2.258986
     58          1           0       -2.389092    2.438805   -1.710576
     59          1           0       -1.322309    1.164388   -2.356179
     60          1           0       -2.758542    1.681744   -3.270545
     61          6           0       -2.923237   -1.658418    2.312524
     62          1           0       -2.185951   -2.395359    1.966545
     63          1           0       -2.408753   -0.907964    2.926963
     64          1           0       -3.645996   -2.180454    2.961255
     65          6           0       -4.776892   -0.114107    1.731119
     66          1           0       -5.362472    0.410039    0.968029
     67          1           0       -5.474454   -0.736122    2.317381
     68          1           0       -4.352501    0.632985    2.417059
     69          6           0       -4.327081   -2.163039    0.330299
     70          1           0       -4.882085   -2.821634    1.018632
     71          1           0       -5.039442   -1.794447   -0.418833
     72          1           0       -3.566315   -2.775045   -0.178514
     73          8           0        0.018323   -3.091159   -0.262960
     74          6           0        0.059420   -1.054986    1.765976
     75          1           0       -0.045040   -3.093247   -1.233768
     76          8           0        0.127203   -1.096255    2.935309
 ---------------------------------------------------------------------
 Rotational constants (GHZ):           0.1876536           0.1023226           0.0928647
 Standard basis: def2SVP (5D, 7F)
 There are   719 symmetry adapted cartesian basis functions of A   symmetry.
 There are   684 symmetry adapted basis functions of A   symmetry.
   684 basis functions,  1154 primitive gaussians,   719 cartesian basis functions
   134 alpha electrons      132 beta electrons
       nuclear repulsion energy      4462.4869616989 Hartrees.
 NAtoms=   76 NActive=   76 NUniq=   76 SFac= 1.00D+00 NAtFMM=   60 NAOKFM=T Big=T
 Integral buffers will be    131072 words long.
 Raffenetti 2 integral format.
 Two-electron integral symmetry is turned on.
 Nuclear repulsion after empirical dispersion term =     4462.2634495924 Hartrees.
 ------------------------------------------------------------------------------
 Polarizable Continuum Model (PCM)
 =================================
 Model                : PCM.
 Atomic radii         : SMD-Coulomb.
 Polarization charges : Total charges.
 Charge compensation  : None.
 Solution method      : On-the-fly selection.
 Cavity type          : VdW (van der Waals Surface) (Alpha=1.000).
 Cavity algorithm     : GePol (No added spheres)
                        Default sphere list used, NSphG=   76.
                        Lebedev-Laikov grids with approx.  5.0 points / Ang**2.
                        Smoothing algorithm: York/Karplus (Gamma=1.0000).
                        Polarization charges: spherical gaussians, with
                                              point-specific exponents (IZeta= 3).
                        Self-potential: point-specific (ISelfS= 7).
                        Self-field    : sphere-specific E.n sum rule (ISelfD= 2).
 Solvent              : Water, Eps=  78.355300 Eps(inf)=   1.777849
 ------------------------------------------------------------------------------
 ------------------------------------------------------------------------------
 Atomic radii for non-electrostatic terms: SMD-CDS.
 ------------------------------------------------------------------------------
 Nuclear repulsion after PCM non-electrostatic terms =     4462.2822454545 Hartrees.
 One-electron integrals computed using PRISM.
   1 Symmetry operations used in ECPInt.
 ECPInt:  NShTT=   54615 NPrTT=  190596 LenC2=   47892 LenP2D=  113023.
 LDataN:  DoStor=T MaxTD1= 7 Len=  274
 NBasis=   684 RedAO= T EigKep=  4.91D-04  NBF=   684
 NBsUse=   684 1.00D-06 EigRej= -1.00D+00 NBFU=   684
 Defaulting to unpruned grid for atomic number  44.
 Initial guess from the checkpoint file:  "A_Ru_Cis_straight_CO_DFT_B3LYP_def2SVP_smd_water_T_3MC_tweaked_geom_TDDFT_100.chk"
 B after Tr=     0.000000    0.000000   -0.000000
         Rot=    1.000000   -0.000000   -0.000000   -0.000000 Ang=   0.00 deg.
 Initial guess <Sx>= 0.0000 <Sy>= 0.0000 <Sz>= 1.0000 <S**2>= 2.0202 S= 1.0067
 Requested convergence on RMS density matrix=1.00D-08 within  32 cycles.
 Requested convergence on MAX density matrix=1.00D-06.
 Requested convergence on             energy=1.00D-06.
 No special actions if energy rises.
 Defaulting to unpruned grid for atomic number  44.
 Defaulting to unpruned grid for atomic number  44.
 Defaulting to unpruned grid for atomic number  44.
 Defaulting to unpruned grid for atomic number  44.
 Defaulting to unpruned grid for atomic number  44.
 Defaulting to unpruned grid for atomic number  44.
 Defaulting to unpruned grid for atomic number  44.
 Defaulting to unpruned grid for atomic number  44.
 Defaulting to unpruned grid for atomic number  44.
 Defaulting to unpruned grid for atomic number  44.
 Defaulting to unpruned grid for atomic number  44.
 Defaulting to unpruned grid for atomic number  44.
 Defaulting to unpruned grid for atomic number  44.
 Defaulting to unpruned grid for atomic number  44.
 Defaulting to unpruned grid for atomic number  44.
 Defaulting to unpruned grid for atomic number  44.
 Defaulting to unpruned grid for atomic number  44.
 Defaulting to unpruned grid for atomic number  44.
 Defaulting to unpruned grid for atomic number  44.
 Defaulting to unpruned grid for atomic number  44.
 Defaulting to unpruned grid for atomic number  44.
 Defaulting to unpruned grid for atomic number  44.
 Defaulting to unpruned grid for atomic number  44.
 Defaulting to unpruned grid for atomic number  44.
 Inv3:  Mode=1 IEnd=    66354627.
 Iteration    1 A*A^-1 deviation from unit magnitude is 3.77D-15 for   1275.
 Iteration    1 A*A^-1 deviation from orthogonality  is 2.44D-15 for   3197    196.
 Iteration    1 A^-1*A deviation from unit magnitude is 3.55D-15 for    760.
 Iteration    1 A^-1*A deviation from orthogonality  is 8.16D-14 for   4045   3170.
 Error on total polarization charges =  0.07828
 SCF Done:  E(UB3LYP) =  -1998.94910994     A.U. after    1 cycles
            NFock=  1  Conv=0.11D-08     -V/T= 2.0403
 <Sx>= 0.0000 <Sy>= 0.0000 <Sz>= 1.0000 <S**2>= 2.0202 S= 1.0067
 <L.S>=  0.00000000000    
 SMD-CDS (non-electrostatic) energy       (kcal/mol) =      11.79
 (included in total energy above)
 Annihilation of the first spin contaminant:
 S**2 before annihilation     2.0202,   after     2.0002
 QCSCF skips out because SCF is already converged.
 DoSCS=F DFT=T ScalE2(SS,OS)=  1.000000  1.000000
 ExpMin= 3.92D-02 ExpMax= 8.00D+03 ExpMxC= 1.20D+03 IAcc=3 IRadAn=         5 AccDes= 0.00D+00
 HarFok:  IExCor=  205 AccDes= 0.00D+00 IRadAn=         5 IDoV=-2 UseB2=F ITyADJ=14
 ICtDFT= 12500011 ScaDFX=  1.000000  1.000000  1.000000  1.000000
 Defaulting to unpruned grid for atomic number  44.
 GSVD:  LWork=       -2100 too small for GESVD, short by        9450 words or        9450 for optimal perf.
 Range of M.O.s used for correlation:    43   684
 NBasis=   684 NAE=   134 NBE=   132 NFC=    42 NFV=     0
 NROrb=    642 NOA=    92 NOB=    90 NVA=   550 NVB=   552

 **** Warning!!: The largest beta MO coefficient is  0.10103368D+02

 Ignoring spin specification with unrestricted ground state.
 NEqPCM:  Using non-equilibrium solvation (IEInf=1, Eps=  78.3553, EpsInf=   1.7778)
 Inv3:  Mode=1 IEnd=    66354627.
 Iteration    1 A*A^-1 deviation from unit magnitude is 3.22D-15 for   3709.
 Iteration    1 A*A^-1 deviation from orthogonality  is 2.66D-15 for   4279   1521.
 Iteration    1 A^-1*A deviation from unit magnitude is 3.33D-15 for   2016.
 Iteration    1 A^-1*A deviation from orthogonality  is 2.38D-15 for   2134   1402.
 Orbital symmetries:
 Alpha Orbitals:
       Occupied  (A) (A) (A) (A) (A) (A) (A) (A) (A) (A) (A) (A)
                 (A) (A) (A) (A) (A) (A) (A) (A) (A) (A) (A) (A)
                 (A) (A) (A) (A) (A) (A) (A) (A) (A) (A) (A) (A)
                 (A) (A) (A) (A) (A) (A) (A) (A) (A) (A) (A) (A)
                 (A) (A) (A) (A) (A) (A) (A) (A) (A) (A) (A) (A)
                 (A) (A) (A) (A) (A) (A) (A) (A) (A) (A) (A) (A)
                 (A) (A) (A) (A) (A) (A) (A) (A) (A) (A) (A) (A)
                 (A) (A) (A) (A) (A) (A) (A) (A) (A) (A) (A) (A)
                 (A) (A) (A) (A) (A) (A) (A) (A) (A) (A) (A) (A)
                 (A) (A) (A) (A) (A) (A) (A) (A) (A) (A) (A) (A)
                 (A) (A) (A) (A) (A) (A) (A) (A) (A) (A) (A) (A)
                 (A) (A)
       Virtual   (A) (A) (A) (A) (A) (A) (A) (A) (A) (A) (A) (A)
                 (A) (A) (A) (A) (A) (A) (A) (A) (A) (A) (A) (A)
                 (A) (A) (A) (A) (A) (A) (A) (A) (A) (A) (A) (A)
                 (A) (A) (A) (A) (A) (A) (A) (A) (A) (A) (A) (A)
                 (A) (A) (A) (A) (A) (A) (A) (A) (A) (A) (A) (A)
                 (A) (A) (A) (A) (A) (A) (A) (A) (A) (A) (A) (A)
                 (A) (A) (A) (A) (A) (A) (A) (A) (A) (A) (A) (A)
                 (A) (A) (A) (A) (A) (A) (A) (A) (A) (A) (A) (A)
                 (A) (A) (A) (A) (A) (A) (A) (A) (A) (A) (A) (A)
                 (A) (A) (A) (A) (A) (A) (A) (A) (A) (A) (A) (A)
                 (A) (A) (A) (A) (A) (A) (A) (A) (A) (A) (A) (A)
                 (A) (A) (A) (A) (A) (A) (A) (A) (A) (A) (A) (A)
                 (A) (A) (A) (A) (A) (A) (A) (A) (A) (A) (A) (A)
                 (A) (A) (A) (A) (A) (A) (A) (A) (A) (A) (A) (A)
                 (A) (A) (A) (A) (A) (A) (A) (A) (A) (A) (A) (A)
                 (A) (A) (A) (A) (A) (A) (A) (A) (A) (A) (A) (A)
                 (A) (A) (A) (A) (A) (A) (A) (A) (A) (A) (A) (A)
                 (A) (A) (A) (A) (A) (A) (A) (A) (A) (A) (A) (A)
                 (A) (A) (A) (A) (A) (A) (A) (A) (A) (A) (A) (A)
                 (A) (A) (A) (A) (A) (A) (A) (A) (A) (A) (A) (A)
                 (A) (A) (A) (A) (A) (A) (A) (A) (A) (A) (A) (A)
                 (A) (A) (A) (A) (A) (A) (A) (A) (A) (A) (A) (A)
                 (A) (A) (A) (A) (A) (A) (A) (A) (A) (A) (A) (A)
                 (A) (A) (A) (A) (A) (A) (A) (A) (A) (A) (A) (A)
                 (A) (A) (A) (A) (A) (A) (A) (A) (A) (A) (A) (A)
                 (A) (A) (A) (A) (A) (A) (A) (A) (A) (A) (A) (A)
                 (A) (A) (A) (A) (A) (A) (A) (A) (A) (A) (A) (A)
                 (A) (A) (A) (A) (A) (A) (A) (A) (A) (A) (A) (A)
                 (A) (A) (A) (A) (A) (A) (A) (A) (A) (A) (A) (A)
                 (A) (A) (A) (A) (A) (A) (A) (A) (A) (A) (A) (A)
                 (A) (A) (A) (A) (A) (A) (A) (A) (A) (A) (A) (A)
                 (A) (A) (A) (A) (A) (A) (A) (A) (A) (A) (A) (A)
                 (A) (A) (A) (A) (A) (A) (A) (A) (A) (A) (A) (A)
                 (A) (A) (A) (A) (A) (A) (A) (A) (A) (A) (A) (A)
                 (A) (A) (A) (A) (A) (A) (A) (A) (A) (A) (A) (A)
                 (A) (A) (A) (A) (A) (A) (A) (A) (A) (A) (A) (A)
                 (A) (A) (A) (A) (A) (A) (A) (A) (A) (A) (A) (A)
                 (A) (A) (A) (A) (A) (A) (A) (A) (A) (A) (A) (A)
                 (A) (A) (A) (A) (A) (A) (A) (A) (A) (A) (A) (A)
                 (A) (A) (A) (A) (A) (A) (A) (A) (A) (A) (A) (A)
                 (A) (A) (A) (A) (A) (A) (A) (A) (A) (A) (A) (A)
                 (A) (A) (A) (A) (A) (A) (A) (A) (A) (A) (A) (A)
                 (A) (A) (A) (A) (A) (A) (A) (A) (A) (A) (A) (A)
                 (A) (A) (A) (A) (A) (A) (A) (A) (A) (A) (A) (A)
                 (A) (A) (A) (A) (A) (A) (A) (A) (A) (A) (A) (A)
                 (A) (A) (A) (A) (A) (A) (A) (A) (A) (A)
 Beta  Orbitals:
       Occupied  (A) (A) (A) (A) (A) (A) (A) (A) (A) (A) (A) (A)
                 (A) (A) (A) (A) (A) (A) (A) (A) (A) (A) (A) (A)
                 (A) (A) (A) (A) (A) (A) (A) (A) (A) (A) (A) (A)
                 (A) (A) (A) (A) (A) (A) (A) (A) (A) (A) (A) (A)
                 (A) (A) (A) (A) (A) (A) (A) (A) (A) (A) (A) (A)
                 (A) (A) (A) (A) (A) (A) (A) (A) (A) (A) (A) (A)
                 (A) (A) (A) (A) (A) (A) (A) (A) (A) (A) (A) (A)
                 (A) (A) (A) (A) (A) (A) (A) (A) (A) (A) (A) (A)
                 (A) (A) (A) (A) (A) (A) (A) (A) (A) (A) (A) (A)
                 (A) (A) (A) (A) (A) (A) (A) (A) (A) (A) (A) (A)
                 (A) (A) (A) (A) (A) (A) (A) (A) (A) (A) (A) (A)
       Virtual   (A) (A) (A) (A) (A) (A) (A) (A) (A) (A) (A) (A)
                 (A) (A) (A) (A) (A) (A) (A) (A) (A) (A) (A) (A)
                 (A) (A) (A) (A) (A) (A) (A) (A) (A) (A) (A) (A)
                 (A) (A) (A) (A) (A) (A) (A) (A) (A) (A) (A) (A)
                 (A) (A) (A) (A) (A) (A) (A) (A) (A) (A) (A) (A)
                 (A) (A) (A) (A) (A) (A) (A) (A) (A) (A) (A) (A)
                 (A) (A) (A) (A) (A) (A) (A) (A) (A) (A) (A) (A)
                 (A) (A) (A) (A) (A) (A) (A) (A) (A) (A) (A) (A)
                 (A) (A) (A) (A) (A) (A) (A) (A) (A) (A) (A) (A)
                 (A) (A) (A) (A) (A) (A) (A) (A) (A) (A) (A) (A)
                 (A) (A) (A) (A) (A) (A) (A) (A) (A) (A) (A) (A)
                 (A) (A) (A) (A) (A) (A) (A) (A) (A) (A) (A) (A)
                 (A) (A) (A) (A) (A) (A) (A) (A) (A) (A) (A) (A)
                 (A) (A) (A) (A) (A) (A) (A) (A) (A) (A) (A) (A)
                 (A) (A) (A) (A) (A) (A) (A) (A) (A) (A) (A) (A)
                 (A) (A) (A) (A) (A) (A) (A) (A) (A) (A) (A) (A)
                 (A) (A) (A) (A) (A) (A) (A) (A) (A) (A) (A) (A)
                 (A) (A) (A) (A) (A) (A) (A) (A) (A) (A) (A) (A)
                 (A) (A) (A) (A) (A) (A) (A) (A) (A) (A) (A) (A)
                 (A) (A) (A) (A) (A) (A) (A) (A) (A) (A) (A) (A)
                 (A) (A) (A) (A) (A) (A) (A) (A) (A) (A) (A) (A)
                 (A) (A) (A) (A) (A) (A) (A) (A) (A) (A) (A) (A)
                 (A) (A) (A) (A) (A) (A) (A) (A) (A) (A) (A) (A)
                 (A) (A) (A) (A) (A) (A) (A) (A) (A) (A) (A) (A)
                 (A) (A) (A) (A) (A) (A) (A) (A) (A) (A) (A) (A)
                 (A) (A) (A) (A) (A) (A) (A) (A) (A) (A) (A) (A)
                 (A) (A) (A) (A) (A) (A) (A) (A) (A) (A) (A) (A)
                 (A) (A) (A) (A) (A) (A) (A) (A) (A) (A) (A) (A)
                 (A) (A) (A) (A) (A) (A) (A) (A) (A) (A) (A) (A)
                 (A) (A) (A) (A) (A) (A) (A) (A) (A) (A) (A) (A)
                 (A) (A) (A) (A) (A) (A) (A) (A) (A) (A) (A) (A)
                 (A) (A) (A) (A) (A) (A) (A) (A) (A) (A) (A) (A)
                 (A) (A) (A) (A) (A) (A) (A) (A) (A) (A) (A) (A)
                 (A) (A) (A) (A) (A) (A) (A) (A) (A) (A) (A) (A)
                 (A) (A) (A) (A) (A) (A) (A) (A) (A) (A) (A) (A)
                 (A) (A) (A) (A) (A) (A) (A) (A) (A) (A) (A) (A)
                 (A) (A) (A) (A) (A) (A) (A) (A) (A) (A) (A) (A)
                 (A) (A) (A) (A) (A) (A) (A) (A) (A) (A) (A) (A)
                 (A) (A) (A) (A) (A) (A) (A) (A) (A) (A) (A) (A)
                 (A) (A) (A) (A) (A) (A) (A) (A) (A) (A) (A) (A)
                 (A) (A) (A) (A) (A) (A) (A) (A) (A) (A) (A) (A)
                 (A) (A) (A) (A) (A) (A) (A) (A) (A) (A) (A) (A)
                 (A) (A) (A) (A) (A) (A) (A) (A) (A) (A) (A) (A)
                 (A) (A) (A) (A) (A) (A) (A) (A) (A) (A) (A) (A)
                 (A) (A) (A) (A) (A) (A) (A) (A) (A) (A) (A) (A)
                 (A) (A) (A) (A) (A) (A) (A) (A) (A) (A) (A) (A)
   400 initial guesses have been made.
 Convergence on wavefunction:    0.001000000000000
 Iteration     1 Dimension   400 NMult     0 NNew    400
 CISAX will form   144 AO SS matrices at one time.
 Defaulting to unpruned grid for atomic number  44.
 Defaulting to unpruned grid for atomic number  44.
 Defaulting to unpruned grid for atomic number  44.
 Defaulting to unpruned grid for atomic number  44.
 Defaulting to unpruned grid for atomic number  44.
 Defaulting to unpruned grid for atomic number  44.
 Defaulting to unpruned grid for atomic number  44.
 Defaulting to unpruned grid for atomic number  44.
 Defaulting to unpruned grid for atomic number  44.
 Defaulting to unpruned grid for atomic number  44.
 Defaulting to unpruned grid for atomic number  44.
 Defaulting to unpruned grid for atomic number  44.
 Defaulting to unpruned grid for atomic number  44.
 Defaulting to unpruned grid for atomic number  44.
 Defaulting to unpruned grid for atomic number  44.
 Defaulting to unpruned grid for atomic number  44.
 Defaulting to unpruned grid for atomic number  44.
 Defaulting to unpruned grid for atomic number  44.
 Defaulting to unpruned grid for atomic number  44.
 Defaulting to unpruned grid for atomic number  44.
 Defaulting to unpruned grid for atomic number  44.
 Defaulting to unpruned grid for atomic number  44.
 Defaulting to unpruned grid for atomic number  44.
 Defaulting to unpruned grid for atomic number  44.
 New state      1 was old state      3
 New state      2 was old state      5
 New state      3 was old state      1
 New state      5 was old state      2
 New state      6 was old state     10
 New state      8 was old state     19
 New state      9 was old state      8
 New state     10 was old state     15
 New state     11 was old state     16
 New state     12 was old state      6
 New state     13 was old state      9
 New state     14 was old state     13
 New state     15 was old state     30
 New state     16 was old state     11
 New state     17 was old state     22
 New state     18 was old state     21
 New state     19 was old state     18
 New state     20 was old state     17
 New state     21 was old state     12
 New state     22 was old state     14
 New state     23 was old state     56
 New state     24 was old state     20
 New state     25 was old state     36
 New state     26 was old state     53
 New state     27 was old state     26
 New state     28 was old state     29
 New state     29 was old state     37
 New state     30 was old state     60
 New state     31 was old state     23
 New state     32 was old state     50
 New state     34 was old state     47
 New state     35 was old state     24
 New state     36 was old state     27
 New state     37 was old state     25
 New state     38 was old state     58
 New state     39 was old state     78
 New state     40 was old state     28
 New state     41 was old state     69
 New state     42 was old state     32
 New state     43 was old state     64
 New state     45 was old state     65
 New state     46 was old state     48
 New state     47 was old state    109
 New state     48 was old state     34
 New state     49 was old state     31
 New state     50 was old state     71
 New state     51 was old state     38
 New state     52 was old state     41
 New state     53 was old state     70
 New state     54 was old state     39
 New state     55 was old state     49
 New state     56 was old state     40
 New state     57 was old state     43
 New state     58 was old state     45
 New state     59 was old state     52
 New state     60 was old state    114
 New state     61 was old state     67
 New state     62 was old state     80
 New state     64 was old state     74
 New state     65 was old state     98
 New state     66 was old state     51
 New state     67 was old state     68
 New state     68 was old state     95
 New state     69 was old state     57
 New state     70 was old state     55
 New state     71 was old state     62
 New state     72 was old state     77
 New state     73 was old state     61
 New state     74 was old state     66
 New state     75 was old state     59
 New state     76 was old state     79
 New state     77 was old state    144
 New state     78 was old state     73
 New state     79 was old state     88
 New state     80 was old state     84
 New state     81 was old state    111
 New state     82 was old state     75
 New state     83 was old state     76
 New state     84 was old state     72
 New state     85 was old state     94
 New state     86 was old state    151
 New state     87 was old state    112
 New state     88 was old state     87
 New state     89 was old state    131
 New state     90 was old state     83
 New state     91 was old state     81
 New state     92 was old state     90
 New state     93 was old state    121
 New state     94 was old state    104
 New state     95 was old state     89
 New state     96 was old state     85
 New state     97 was old state     82
 New state     98 was old state     86
 New state     99 was old state    133
 New state    100 was old state    103
 Iteration     2 Dimension   600 NMult   400 NNew    200
 New state     16 was old state     23
 New state     17 was old state     18
 New state     18 was old state     16
 New state     19 was old state     17
 New state     20 was old state     19
 New state     21 was old state     20
 New state     22 was old state     21
 New state     23 was old state     22
 New state     25 was old state     27
 New state     27 was old state     25
 New state     38 was old state     39
 New state     39 was old state     38
 New state     46 was old state     47
 New state     47 was old state     46
 New state     53 was old state     55
 New state     54 was old state     53
 New state     55 was old state     54
 New state     57 was old state     59
 New state     58 was old state     57
 New state     59 was old state     58
 New state     62 was old state     64
 New state     63 was old state     62
 New state     64 was old state     63
 New state     78 was old state     79
 New state     79 was old state     78
 New state     84 was old state     86
 New state     86 was old state     84
 New state     87 was old state     88
 New state     88 was old state     89
 New state     89 was old state     87
 New state     91 was old state     93
 New state     92 was old state     91
 New state     93 was old state     94
 New state     94 was old state     92
 No map to state     95
 New state     96 was old state     97
 New state     97 was old state     95
 New state     98 was old state    100
 New state     99 was old state     98
 New state    100 was old state     99
 Iteration     3 Dimension   800 NMult   600 NNew    200
 New state     90 was old state     91
 New state     91 was old state     90
 New state     92 was old state     94
 New state     93 was old state     92
 New state     94 was old state     93
 New state     97 was old state     98
 New state     98 was old state     97
 Iteration     4 Dimension   996 NMult   800 NNew    196
 Iteration     5 Dimension  1116 NMult   996 NNew    120
 Iteration     6 Dimension  1128 NMult  1116 NNew     12
 ***********************************************************************
 Excited states from <AA,BB:AA,BB> singles matrix:
 ***********************************************************************
 
 ExtSpn:  IState=     1 X2= 1.004 Y2= 0.004 X2-Y2-1= 0.00D+00
          S2Grnd=  2.020 Ra=  0.000 Rb= -0.002 T= -0.007 S2Ext= -0.008 S2=  2.012
 ExtSpn:  IState=     2 X2= 1.003 Y2= 0.003 X2-Y2-1=-1.22D-15
          S2Grnd=  2.020 Ra=  0.010 Rb=  0.000 T= -0.004 S2Ext=  0.006 S2=  2.026
 ExtSpn:  IState=     3 X2= 1.002 Y2= 0.002 X2-Y2-1=-6.66D-16
          S2Grnd=  2.020 Ra=  0.043 Rb=  0.001 T=  0.004 S2Ext=  0.048 S2=  2.068
 ExtSpn:  IState=     4 X2= 1.002 Y2= 0.002 X2-Y2-1= 1.33D-15
          S2Grnd=  2.020 Ra=  0.045 Rb=  0.003 T=  0.007 S2Ext=  0.056 S2=  2.076
 ExtSpn:  IState=     5 X2= 1.000 Y2= 0.000 X2-Y2-1= 0.00D+00
          S2Grnd=  2.020 Ra=  0.071 Rb=  0.000 T=  0.003 S2Ext=  0.074 S2=  2.094
 ExtSpn:  IState=     6 X2= 1.003 Y2= 0.003 X2-Y2-1=-4.44D-16
          S2Grnd=  2.020 Ra=  0.003 Rb=  0.002 T= -0.007 S2Ext= -0.002 S2=  2.018
 ExtSpn:  IState=     7 X2= 1.002 Y2= 0.002 X2-Y2-1=-3.33D-16
          S2Grnd=  2.020 Ra=  0.014 Rb=  0.011 T= -0.001 S2Ext=  0.024 S2=  2.045
 ExtSpn:  IState=     8 X2= 1.003 Y2= 0.003 X2-Y2-1= 2.22D-16
          S2Grnd=  2.020 Ra=  0.031 Rb=  0.021 T=  0.022 S2Ext=  0.075 S2=  2.095
 ExtSpn:  IState=     9 X2= 1.002 Y2= 0.002 X2-Y2-1= 4.44D-16
          S2Grnd=  2.020 Ra=  0.048 Rb=  0.010 T=  0.006 S2Ext=  0.064 S2=  2.085
 ExtSpn:  IState=    10 X2= 1.002 Y2= 0.002 X2-Y2-1= 1.11D-15
          S2Grnd=  2.020 Ra=  0.034 Rb=  0.016 T= -0.010 S2Ext=  0.040 S2=  2.060
 ExtSpn:  IState=    11 X2= 1.001 Y2= 0.001 X2-Y2-1=-1.22D-15
          S2Grnd=  2.020 Ra=  0.008 Rb=  0.025 T=  0.009 S2Ext=  0.042 S2=  2.062
 ExtSpn:  IState=    12 X2= 1.001 Y2= 0.001 X2-Y2-1= 1.11D-15
          S2Grnd=  2.020 Ra=  0.102 Rb=  0.006 T=  0.012 S2Ext=  0.120 S2=  2.140
 ExtSpn:  IState=    13 X2= 1.005 Y2= 0.005 X2-Y2-1=-3.33D-16
          S2Grnd=  2.020 Ra=  0.410 Rb=  0.519 T=  0.806 S2Ext=  1.735 S2=  3.755
 ExtSpn:  IState=    14 X2= 1.003 Y2= 0.003 X2-Y2-1= 1.33D-15
          S2Grnd=  2.020 Ra=  0.080 Rb=  0.032 T=  0.044 S2Ext=  0.156 S2=  2.177
 ExtSpn:  IState=    15 X2= 1.023 Y2= 0.023 X2-Y2-1= 4.44D-16
          S2Grnd=  2.020 Ra=  0.464 Rb=  0.512 T=  0.752 S2Ext=  1.727 S2=  3.747
 ExtSpn:  IState=    16 X2= 1.012 Y2= 0.012 X2-Y2-1=-7.77D-16
          S2Grnd=  2.020 Ra=  0.268 Rb=  0.664 T=  0.157 S2Ext=  1.089 S2=  3.109
 ExtSpn:  IState=    17 X2= 1.007 Y2= 0.007 X2-Y2-1= 2.66D-15
          S2Grnd=  2.020 Ra=  0.044 Rb=  0.043 T=  0.014 S2Ext=  0.101 S2=  2.121
 ExtSpn:  IState=    18 X2= 1.001 Y2= 0.001 X2-Y2-1=-7.77D-16
          S2Grnd=  2.020 Ra=  0.107 Rb=  0.021 T=  0.023 S2Ext=  0.151 S2=  2.171
 ExtSpn:  IState=    19 X2= 1.001 Y2= 0.001 X2-Y2-1=-1.44D-15
          S2Grnd=  2.020 Ra=  0.062 Rb=  0.030 T=  0.014 S2Ext=  0.107 S2=  2.127
 ExtSpn:  IState=    20 X2= 1.006 Y2= 0.006 X2-Y2-1= 6.66D-16
          S2Grnd=  2.020 Ra=  0.418 Rb=  0.521 T=  0.832 S2Ext=  1.770 S2=  3.790
 ExtSpn:  IState=    21 X2= 1.007 Y2= 0.007 X2-Y2-1=-8.88D-16
          S2Grnd=  2.020 Ra=  0.324 Rb=  0.537 T=  0.619 S2Ext=  1.479 S2=  3.499
 ExtSpn:  IState=    22 X2= 1.003 Y2= 0.003 X2-Y2-1= 1.11D-15
          S2Grnd=  2.020 Ra=  0.298 Rb=  0.367 T=  0.580 S2Ext=  1.244 S2=  3.265
 ExtSpn:  IState=    23 X2= 1.002 Y2= 0.002 X2-Y2-1=-2.22D-16
          S2Grnd=  2.020 Ra=  0.282 Rb=  0.649 T= -0.301 S2Ext=  0.629 S2=  2.649
 ExtSpn:  IState=    24 X2= 1.001 Y2= 0.001 X2-Y2-1=-4.44D-16
          S2Grnd=  2.020 Ra=  0.054 Rb=  0.482 T=  0.084 S2Ext=  0.619 S2=  2.639
 ExtSpn:  IState=    25 X2= 1.001 Y2= 0.001 X2-Y2-1= 4.44D-16
          S2Grnd=  2.020 Ra=  0.057 Rb=  0.198 T=  0.040 S2Ext=  0.294 S2=  2.315
 ExtSpn:  IState=    26 X2= 1.002 Y2= 0.002 X2-Y2-1=-5.55D-16
          S2Grnd=  2.020 Ra=  0.137 Rb=  0.249 T=  0.027 S2Ext=  0.414 S2=  2.434
 ExtSpn:  IState=    27 X2= 1.001 Y2= 0.001 X2-Y2-1=-1.22D-15
          S2Grnd=  2.020 Ra=  0.264 Rb=  0.346 T=  0.085 S2Ext=  0.695 S2=  2.715
 ExtSpn:  IState=    28 X2= 1.001 Y2= 0.001 X2-Y2-1= 6.66D-16
          S2Grnd=  2.020 Ra=  0.417 Rb=  0.402 T= -0.088 S2Ext=  0.731 S2=  2.751
 ExtSpn:  IState=    29 X2= 1.001 Y2= 0.001 X2-Y2-1= 8.88D-16
          S2Grnd=  2.020 Ra=  0.560 Rb=  0.332 T=  0.048 S2Ext=  0.940 S2=  2.960
 ExtSpn:  IState=    30 X2= 1.001 Y2= 0.001 X2-Y2-1=-1.11D-16
          S2Grnd=  2.020 Ra=  0.083 Rb=  0.083 T=  0.052 S2Ext=  0.217 S2=  2.238
 ExtSpn:  IState=    31 X2= 1.001 Y2= 0.001 X2-Y2-1=-4.44D-16
          S2Grnd=  2.020 Ra=  0.057 Rb=  0.016 T= -0.001 S2Ext=  0.072 S2=  2.092
 ExtSpn:  IState=    32 X2= 1.005 Y2= 0.005 X2-Y2-1=-4.44D-16
          S2Grnd=  2.020 Ra=  0.113 Rb=  0.813 T=  0.490 S2Ext=  1.416 S2=  3.436
 ExtSpn:  IState=    33 X2= 1.002 Y2= 0.002 X2-Y2-1=-9.99D-16
          S2Grnd=  2.020 Ra=  0.045 Rb=  0.062 T=  0.022 S2Ext=  0.129 S2=  2.149
 ExtSpn:  IState=    34 X2= 1.001 Y2= 0.001 X2-Y2-1=-1.11D-16
          S2Grnd=  2.020 Ra=  0.070 Rb=  0.075 T= -0.013 S2Ext=  0.132 S2=  2.152
 ExtSpn:  IState=    35 X2= 1.003 Y2= 0.003 X2-Y2-1= 6.66D-16
          S2Grnd=  2.020 Ra=  0.217 Rb=  0.536 T= -0.032 S2Ext=  0.721 S2=  2.741
 ExtSpn:  IState=    36 X2= 1.001 Y2= 0.001 X2-Y2-1=-2.22D-16
          S2Grnd=  2.020 Ra=  0.080 Rb=  0.144 T= -0.065 S2Ext=  0.159 S2=  2.179
 ExtSpn:  IState=    37 X2= 1.004 Y2= 0.004 X2-Y2-1=-2.22D-16
          S2Grnd=  2.020 Ra=  0.240 Rb=  0.593 T=  0.211 S2Ext=  1.044 S2=  3.064
 ExtSpn:  IState=    38 X2= 1.002 Y2= 0.002 X2-Y2-1=-8.88D-16
          S2Grnd=  2.020 Ra=  0.077 Rb=  0.888 T=  0.174 S2Ext=  1.139 S2=  3.159
 ExtSpn:  IState=    39 X2= 1.000 Y2= 0.000 X2-Y2-1=-8.88D-16
          S2Grnd=  2.020 Ra=  0.923 Rb=  0.029 T= -0.033 S2Ext=  0.919 S2=  2.939
 ExtSpn:  IState=    40 X2= 1.003 Y2= 0.003 X2-Y2-1= 6.66D-16
          S2Grnd=  2.020 Ra=  0.312 Rb=  0.266 T=  0.286 S2Ext=  0.865 S2=  2.885
 ExtSpn:  IState=    41 X2= 1.002 Y2= 0.002 X2-Y2-1= 4.44D-16
          S2Grnd=  2.020 Ra=  0.171 Rb=  0.375 T=  0.111 S2Ext=  0.656 S2=  2.677
 ExtSpn:  IState=    42 X2= 1.001 Y2= 0.001 X2-Y2-1=-2.22D-16
          S2Grnd=  2.020 Ra=  0.097 Rb=  0.085 T= -0.006 S2Ext=  0.176 S2=  2.196
 ExtSpn:  IState=    43 X2= 1.002 Y2= 0.002 X2-Y2-1= 0.00D+00
          S2Grnd=  2.020 Ra=  0.303 Rb=  0.563 T=  0.290 S2Ext=  1.156 S2=  3.176
 ExtSpn:  IState=    44 X2= 1.003 Y2= 0.003 X2-Y2-1= 6.66D-16
          S2Grnd=  2.020 Ra=  0.202 Rb=  0.596 T=  0.119 S2Ext=  0.917 S2=  2.937
 ExtSpn:  IState=    45 X2= 1.002 Y2= 0.002 X2-Y2-1= 0.00D+00
          S2Grnd=  2.020 Ra=  0.097 Rb=  0.132 T=  0.045 S2Ext=  0.273 S2=  2.293
 ExtSpn:  IState=    46 X2= 1.003 Y2= 0.003 X2-Y2-1=-6.66D-16
          S2Grnd=  2.020 Ra=  0.582 Rb=  0.280 T=  0.388 S2Ext=  1.249 S2=  3.270
 ExtSpn:  IState=    47 X2= 1.002 Y2= 0.002 X2-Y2-1=-2.22D-16
          S2Grnd=  2.020 Ra=  0.082 Rb=  0.054 T=  0.048 S2Ext=  0.184 S2=  2.204
 ExtSpn:  IState=    48 X2= 1.000 Y2= 0.000 X2-Y2-1= 2.89D-15
          S2Grnd=  2.020 Ra=  0.004 Rb=  0.036 T=  0.008 S2Ext=  0.048 S2=  2.068
 ExtSpn:  IState=    49 X2= 1.000 Y2= 0.000 X2-Y2-1=-1.11D-15
          S2Grnd=  2.020 Ra=  0.070 Rb=  0.005 T=  0.004 S2Ext=  0.080 S2=  2.100
 ExtSpn:  IState=    50 X2= 1.001 Y2= 0.001 X2-Y2-1=-2.33D-15
          S2Grnd=  2.020 Ra=  0.288 Rb=  0.097 T= -0.049 S2Ext=  0.336 S2=  2.356
 ExtSpn:  IState=    51 X2= 1.001 Y2= 0.001 X2-Y2-1= 8.88D-16
          S2Grnd=  2.020 Ra=  0.506 Rb=  0.129 T= -0.135 S2Ext=  0.500 S2=  2.521
 ExtSpn:  IState=    52 X2= 1.003 Y2= 0.003 X2-Y2-1= 1.33D-15
          S2Grnd=  2.020 Ra=  0.380 Rb=  0.297 T= -0.520 S2Ext=  0.158 S2=  2.178
 ExtSpn:  IState=    53 X2= 1.002 Y2= 0.002 X2-Y2-1= 8.88D-16
          S2Grnd=  2.020 Ra=  0.136 Rb=  0.117 T= -0.125 S2Ext=  0.129 S2=  2.149
 ExtSpn:  IState=    54 X2= 1.001 Y2= 0.001 X2-Y2-1=-5.55D-16
          S2Grnd=  2.020 Ra=  0.168 Rb=  0.067 T= -0.031 S2Ext=  0.204 S2=  2.224
 ExtSpn:  IState=    55 X2= 1.001 Y2= 0.001 X2-Y2-1=-3.33D-16
          S2Grnd=  2.020 Ra=  0.050 Rb=  0.265 T= -0.009 S2Ext=  0.306 S2=  2.326
 ExtSpn:  IState=    56 X2= 1.000 Y2= 0.000 X2-Y2-1= 6.66D-16
          S2Grnd=  2.020 Ra=  0.058 Rb=  0.550 T=  0.007 S2Ext=  0.615 S2=  2.635
 ExtSpn:  IState=    57 X2= 1.001 Y2= 0.001 X2-Y2-1=-1.55D-15
          S2Grnd=  2.020 Ra=  0.699 Rb=  0.101 T= -0.166 S2Ext=  0.634 S2=  2.654
 ExtSpn:  IState=    58 X2= 1.001 Y2= 0.001 X2-Y2-1= 4.44D-16
          S2Grnd=  2.020 Ra=  0.213 Rb=  0.138 T= -0.036 S2Ext=  0.315 S2=  2.335
 ExtSpn:  IState=    59 X2= 1.001 Y2= 0.001 X2-Y2-1= 2.22D-16
          S2Grnd=  2.020 Ra=  0.152 Rb=  0.071 T= -0.099 S2Ext=  0.125 S2=  2.145
 ExtSpn:  IState=    60 X2= 1.001 Y2= 0.001 X2-Y2-1=-9.99D-16
          S2Grnd=  2.020 Ra=  0.212 Rb=  0.070 T= -0.123 S2Ext=  0.159 S2=  2.179
 ExtSpn:  IState=    61 X2= 1.002 Y2= 0.002 X2-Y2-1= 2.22D-16
          S2Grnd=  2.020 Ra=  0.678 Rb=  0.216 T= -0.589 S2Ext=  0.305 S2=  2.325
 ExtSpn:  IState=    62 X2= 1.002 Y2= 0.002 X2-Y2-1= 4.44D-16
          S2Grnd=  2.020 Ra=  0.530 Rb=  0.167 T= -0.367 S2Ext=  0.330 S2=  2.350
 ExtSpn:  IState=    63 X2= 1.001 Y2= 0.001 X2-Y2-1=-5.55D-16
          S2Grnd=  2.020 Ra=  0.247 Rb=  0.163 T=  0.217 S2Ext=  0.627 S2=  2.647
 ExtSpn:  IState=    64 X2= 1.001 Y2= 0.001 X2-Y2-1=-4.44D-16
          S2Grnd=  2.020 Ra=  0.084 Rb=  0.766 T=  0.264 S2Ext=  1.114 S2=  3.134
 ExtSpn:  IState=    65 X2= 1.001 Y2= 0.001 X2-Y2-1= 1.11D-15
          S2Grnd=  2.020 Ra=  0.277 Rb=  0.486 T=  0.312 S2Ext=  1.076 S2=  3.096
 ExtSpn:  IState=    66 X2= 1.001 Y2= 0.001 X2-Y2-1= 6.66D-16
          S2Grnd=  2.020 Ra=  0.168 Rb=  0.036 T= -0.013 S2Ext=  0.192 S2=  2.212
 ExtSpn:  IState=    67 X2= 1.000 Y2= 0.000 X2-Y2-1=-9.99D-16
          S2Grnd=  2.020 Ra=  0.107 Rb=  0.031 T=  0.024 S2Ext=  0.162 S2=  2.182
 ExtSpn:  IState=    68 X2= 1.001 Y2= 0.001 X2-Y2-1=-7.77D-16
          S2Grnd=  2.020 Ra=  0.449 Rb=  0.421 T= -0.031 S2Ext=  0.839 S2=  2.859
 ExtSpn:  IState=    69 X2= 1.001 Y2= 0.001 X2-Y2-1= 2.22D-16
          S2Grnd=  2.020 Ra=  0.689 Rb=  0.241 T= -0.212 S2Ext=  0.717 S2=  2.738
 ExtSpn:  IState=    70 X2= 1.000 Y2= 0.000 X2-Y2-1= 4.44D-16
          S2Grnd=  2.020 Ra=  0.097 Rb=  0.507 T=  0.138 S2Ext=  0.742 S2=  2.762
 ExtSpn:  IState=    71 X2= 1.000 Y2= 0.000 X2-Y2-1=-1.11D-15
          S2Grnd=  2.020 Ra=  0.117 Rb=  0.285 T=  0.071 S2Ext=  0.474 S2=  2.494
 ExtSpn:  IState=    72 X2= 1.000 Y2= 0.000 X2-Y2-1=-3.33D-16
          S2Grnd=  2.020 Ra=  0.127 Rb=  0.078 T=  0.038 S2Ext=  0.244 S2=  2.264
 ExtSpn:  IState=    73 X2= 1.001 Y2= 0.001 X2-Y2-1= 2.22D-16
          S2Grnd=  2.020 Ra=  0.693 Rb=  0.077 T=  0.130 S2Ext=  0.899 S2=  2.920
 ExtSpn:  IState=    74 X2= 1.001 Y2= 0.001 X2-Y2-1=-7.77D-16
          S2Grnd=  2.020 Ra=  0.241 Rb=  0.048 T=  0.053 S2Ext=  0.342 S2=  2.362
 ExtSpn:  IState=    75 X2= 1.001 Y2= 0.001 X2-Y2-1=-7.77D-16
          S2Grnd=  2.020 Ra=  0.389 Rb=  0.556 T=  0.186 S2Ext=  1.131 S2=  3.151
 ExtSpn:  IState=    76 X2= 1.000 Y2= 0.000 X2-Y2-1= 2.22D-16
          S2Grnd=  2.020 Ra=  0.252 Rb=  0.052 T= -0.001 S2Ext=  0.302 S2=  2.323
 ExtSpn:  IState=    77 X2= 1.001 Y2= 0.001 X2-Y2-1=-9.99D-16
          S2Grnd=  2.020 Ra=  0.522 Rb=  0.263 T=  0.166 S2Ext=  0.951 S2=  2.971
 ExtSpn:  IState=    78 X2= 1.001 Y2= 0.001 X2-Y2-1= 0.00D+00
          S2Grnd=  2.020 Ra=  0.376 Rb=  0.536 T=  0.237 S2Ext=  1.149 S2=  3.169
 ExtSpn:  IState=    79 X2= 1.001 Y2= 0.001 X2-Y2-1= 2.22D-16
          S2Grnd=  2.020 Ra=  0.081 Rb=  0.821 T=  0.154 S2Ext=  1.056 S2=  3.076
 ExtSpn:  IState=    80 X2= 1.001 Y2= 0.001 X2-Y2-1= 1.11D-15
          S2Grnd=  2.020 Ra=  0.601 Rb=  0.354 T=  0.230 S2Ext=  1.185 S2=  3.205
 ExtSpn:  IState=    81 X2= 1.001 Y2= 0.001 X2-Y2-1= 4.44D-16
          S2Grnd=  2.020 Ra=  0.065 Rb=  0.062 T=  0.013 S2Ext=  0.140 S2=  2.160
 ExtSpn:  IState=    82 X2= 1.001 Y2= 0.001 X2-Y2-1= 2.22D-16
          S2Grnd=  2.020 Ra=  0.343 Rb=  0.106 T=  0.068 S2Ext=  0.517 S2=  2.537
 ExtSpn:  IState=    83 X2= 1.001 Y2= 0.001 X2-Y2-1=-3.33D-16
          S2Grnd=  2.020 Ra=  0.650 Rb=  0.192 T=  0.365 S2Ext=  1.207 S2=  3.227
 ExtSpn:  IState=    84 X2= 1.003 Y2= 0.003 X2-Y2-1= 2.22D-16
          S2Grnd=  2.020 Ra=  0.606 Rb=  0.331 T= -0.347 S2Ext=  0.590 S2=  2.610
 ExtSpn:  IState=    85 X2= 1.000 Y2= 0.000 X2-Y2-1= 2.22D-16
          S2Grnd=  2.020 Ra=  0.378 Rb=  0.171 T=  0.004 S2Ext=  0.552 S2=  2.572
 ExtSpn:  IState=    86 X2= 1.000 Y2= 0.000 X2-Y2-1= 0.00D+00
          S2Grnd=  2.020 Ra=  0.595 Rb=  0.116 T=  0.071 S2Ext=  0.783 S2=  2.803
 ExtSpn:  IState=    87 X2= 1.001 Y2= 0.001 X2-Y2-1= 2.22D-16
          S2Grnd=  2.020 Ra=  0.206 Rb=  0.377 T= -0.069 S2Ext=  0.514 S2=  2.534
 ExtSpn:  IState=    88 X2= 1.001 Y2= 0.001 X2-Y2-1=-2.22D-16
          S2Grnd=  2.020 Ra=  0.153 Rb=  0.370 T=  0.093 S2Ext=  0.615 S2=  2.635
 ExtSpn:  IState=    89 X2= 1.001 Y2= 0.001 X2-Y2-1=-4.44D-16
          S2Grnd=  2.020 Ra=  0.357 Rb=  0.523 T= -0.383 S2Ext=  0.497 S2=  2.518
 ExtSpn:  IState=    90 X2= 1.004 Y2= 0.004 X2-Y2-1=-8.88D-16
          S2Grnd=  2.020 Ra=  0.358 Rb=  0.599 T= -0.358 S2Ext=  0.598 S2=  2.618
 ExtSpn:  IState=    91 X2= 1.000 Y2= 0.000 X2-Y2-1= 1.11D-15
          S2Grnd=  2.020 Ra=  0.037 Rb=  0.111 T=  0.047 S2Ext=  0.194 S2=  2.214
 ExtSpn:  IState=    92 X2= 1.002 Y2= 0.002 X2-Y2-1= 1.33D-15
          S2Grnd=  2.020 Ra=  0.328 Rb=  0.599 T= -0.398 S2Ext=  0.529 S2=  2.549
 ExtSpn:  IState=    93 X2= 1.000 Y2= 0.000 X2-Y2-1= 4.44D-16
          S2Grnd=  2.020 Ra=  0.290 Rb=  0.202 T=  0.201 S2Ext=  0.693 S2=  2.714
 ExtSpn:  IState=    94 X2= 1.000 Y2= 0.000 X2-Y2-1= 0.00D+00
          S2Grnd=  2.020 Ra=  0.237 Rb=  0.180 T=  0.171 S2Ext=  0.588 S2=  2.608
 ExtSpn:  IState=    95 X2= 1.000 Y2= 0.000 X2-Y2-1= 4.00D-15
          S2Grnd=  2.020 Ra=  0.048 Rb=  0.103 T=  0.057 S2Ext=  0.207 S2=  2.227
 ExtSpn:  IState=    96 X2= 1.001 Y2= 0.001 X2-Y2-1= 8.88D-16
          S2Grnd=  2.020 Ra=  0.137 Rb=  0.773 T=  0.125 S2Ext=  1.035 S2=  3.055
 ExtSpn:  IState=    97 X2= 1.001 Y2= 0.001 X2-Y2-1= 2.22D-16
          S2Grnd=  2.020 Ra=  0.452 Rb=  0.277 T=  0.014 S2Ext=  0.743 S2=  2.763
 ExtSpn:  IState=    98 X2= 1.000 Y2= 0.000 X2-Y2-1= 8.88D-16
          S2Grnd=  2.020 Ra=  0.083 Rb=  0.075 T= -0.003 S2Ext=  0.155 S2=  2.175
 ExtSpn:  IState=    99 X2= 1.001 Y2= 0.001 X2-Y2-1=-1.11D-16
          S2Grnd=  2.020 Ra=  0.636 Rb=  0.201 T= -0.110 S2Ext=  0.728 S2=  2.748
 ExtSpn:  IState=   100 X2= 1.000 Y2= 0.000 X2-Y2-1=-2.22D-16
          S2Grnd=  2.020 Ra=  0.124 Rb=  0.073 T=  0.021 S2Ext=  0.217 S2=  2.238
 Ground to excited state transition densities written to RWF  633
 Ground to excited state transition electric dipole moments (Au):
       state          X           Y           Z        Dip. S.      Osc.
         1        -0.0878     -0.0316      0.0494      0.0111      0.0004
         2         0.0200     -0.0439      0.1208      0.0169      0.0008
         3         0.0110     -0.0276      0.1008      0.0110      0.0005
         4        -0.0349      0.1780     -0.0609      0.0366      0.0019
         5         0.0139      0.0863      0.0061      0.0077      0.0005
         6        -0.0690      0.1624      0.1269      0.0472      0.0032
         7        -0.2746     -0.0968     -0.0450      0.0868      0.0064
         8        -0.1088      0.1311      0.0099      0.0291      0.0022
         9         0.6665     -0.0174     -0.0062      0.4446      0.0354
        10         0.3316      0.0084     -0.0135      0.1102      0.0088
        11        -0.0465     -0.0777      0.0275      0.0089      0.0008
        12         0.2021     -0.0112     -0.0201      0.0414      0.0036
        13        -0.1064     -0.0196     -0.0214      0.0122      0.0011
        14        -0.2052      0.1229     -0.0621      0.0611      0.0055
        15        -0.0586      0.0936     -0.0232      0.0127      0.0012
        16         0.1015     -0.2527     -0.0065      0.0742      0.0070
        17        -0.0852      0.4842      0.1149      0.2549      0.0240
        18         0.3740      0.0446     -0.0552      0.1449      0.0139
        19        -0.6194     -0.0420     -0.0044      0.3855      0.0373
        20        -0.0003      0.1300      0.0684      0.0216      0.0021
        21        -0.0317     -0.0638     -0.1227      0.0201      0.0020
        22        -0.2192     -0.0199      0.0608      0.0521      0.0052
        23         0.0576      0.1669      0.0293      0.0320      0.0032
        24         0.0507      0.1854      0.0097      0.0370      0.0038
        25         0.0014     -0.1361      0.0216      0.0190      0.0020
        26         0.0756      0.1171     -0.0100      0.0195      0.0020
        27        -0.0051     -0.1267      0.0336      0.0172      0.0018
        28        -0.0063      0.1979      0.0043      0.0392      0.0041
        29         0.0603     -0.1146     -0.0630      0.0207      0.0022
        30        -0.4702      0.0867     -0.0911      0.2369      0.0249
        31         0.0124     -0.0004      0.1420      0.0203      0.0022
        32         0.0668     -0.0180      0.0021      0.0048      0.0005
        33        -0.2116     -0.0303      0.0380      0.0471      0.0052
        34         0.0712     -0.0216      0.0725      0.0108      0.0012
        35         0.2349      0.0149     -0.0821      0.0621      0.0069
        36        -0.1941      0.0113      0.0381      0.0393      0.0044
        37        -0.0169      0.0066      0.0198      0.0007      0.0001
        38         0.0422      0.0398     -0.0154      0.0036      0.0004
        39        -0.0593      0.0894     -0.0613      0.0153      0.0017
        40         0.3702     -0.3636      0.0007      0.2692      0.0310
        41         0.7096     -0.0738     -0.0024      0.5090      0.0591
        42         0.1659      0.2144      0.0021      0.0735      0.0086
        43        -0.2845      0.0442      0.0027      0.0829      0.0097
        44         0.0394     -0.2123     -0.0590      0.0501      0.0059
        45        -0.4632     -0.3146     -0.1784      0.3453      0.0408
        46         0.0127      0.0780      0.0148      0.0065      0.0008
        47         0.0280      0.1486      0.0525      0.0256      0.0031
        48         0.1088      0.1502     -0.1058      0.0456      0.0056
        49         0.0065      0.0290      0.0313      0.0019      0.0002
        50         0.1771     -0.1216     -0.0324      0.0472      0.0058
        51        -0.1448     -0.1208     -0.0942      0.0444      0.0055
        52        -0.7677     -0.0617      0.1813      0.6260      0.0780
        53         0.2567     -0.3600     -0.0062      0.1955      0.0244
        54         0.3620      0.1165     -0.0822      0.1513      0.0190
        55        -0.1138      0.1330     -0.1129      0.0434      0.0055
        56         0.1863     -0.1661      0.0334      0.0634      0.0080
        57         0.2011      0.0966     -0.0773      0.0558      0.0071
        58         0.0353     -0.2174      0.0690      0.0533      0.0068
        59         0.2046     -0.3214      0.1277      0.1615      0.0207
        60        -0.0025      0.2420     -0.0430      0.0604      0.0078
        61        -0.3021     -0.1065      0.2413      0.1608      0.0207
        62        -0.3263     -0.4106      0.0144      0.2753      0.0356
        63         0.1432     -0.0660      0.0823      0.0316      0.0041
        64         0.0262      0.1362     -0.0135      0.0194      0.0025
        65         0.1440     -0.0341     -0.0621      0.0258      0.0034
        66         0.1362     -0.0638     -0.0640      0.0267      0.0035
        67         0.1855      0.0933     -0.0357      0.0444      0.0059
        68        -0.2846      0.0225     -0.0488      0.0839      0.0112
        69         0.1929     -0.0996     -0.0328      0.0482      0.0065
        70        -0.0646      0.0670      0.0110      0.0088      0.0012
        71         0.1808      0.0486     -0.0699      0.0399      0.0054
        72         0.1567     -0.0629      0.0179      0.0288      0.0039
        73         0.1827     -0.0998     -0.0821      0.0501      0.0068
        74         0.5149      0.0937     -0.0715      0.2790      0.0381
        75         0.0816     -0.0334      0.0400      0.0094      0.0013
        76        -0.1202     -0.0957      0.0347      0.0248      0.0034
        77        -0.0439     -0.0358      0.0181      0.0035      0.0005
        78         0.1138      0.1742     -0.0940      0.0521      0.0073
        79         0.0682     -0.0210      0.0457      0.0072      0.0010
        80        -0.0356     -0.2084     -0.0153      0.0449      0.0063
        81        -0.0827      0.0938      0.0291      0.0165      0.0023
        82        -0.0495     -0.1197     -0.1517      0.0398      0.0056
        83         0.4673     -0.0187      0.0544      0.2216      0.0314
        84        -0.1146      0.5881     -0.0566      0.3622      0.0514
        85        -0.0239      0.2845     -0.0395      0.0830      0.0119
        86        -0.0966     -0.0633     -0.0040      0.0133      0.0019
        87         0.0750     -0.2596     -0.0238      0.0736      0.0105
        88        -0.0223      0.1538      0.1230      0.0393      0.0056
        89        -0.0009     -0.2148      0.0029      0.0461      0.0066
        90        -0.0619      0.7448      0.0608      0.5623      0.0812
        91         0.0860      0.0705     -0.0834      0.0193      0.0028
        92        -0.0694     -0.6648     -0.1168      0.4604      0.0670
        93        -0.0335      0.1197     -0.0102      0.0156      0.0023
        94        -0.0003     -0.0637      0.0828      0.0109      0.0016
        95        -0.0289      0.0145     -0.0136      0.0012      0.0002
        96         0.1497      0.1773      0.1628      0.0803      0.0118
        97        -0.3765     -0.0418      0.1049      0.1545      0.0228
        98        -0.0866     -0.0629      0.0196      0.0119      0.0018
        99         0.1442     -0.0899      0.0885      0.0367      0.0054
       100        -0.2618     -0.0168     -0.0792      0.0751      0.0111
 Ground to excited state transition velocity dipole moments (Au):
       state          X           Y           Z        Dip. S.      Osc.
         1         0.0018      0.0003     -0.0012      0.0000      0.0001
         2         0.0001      0.0000     -0.0032      0.0000      0.0001
         3         0.0021      0.0000     -0.0051      0.0000      0.0003
         4         0.0043     -0.0131      0.0068      0.0002      0.0020
         5        -0.0016     -0.0124     -0.0001      0.0002      0.0011
         6         0.0062     -0.0102     -0.0125      0.0003      0.0020
         7         0.0293      0.0161      0.0060      0.0012      0.0070
         8         0.0113     -0.0277     -0.0028      0.0009      0.0053
         9        -0.0831      0.0042      0.0006      0.0069      0.0387
        10        -0.0352     -0.0002      0.0016      0.0012      0.0069
        11         0.0085      0.0129     -0.0048      0.0003      0.0014
        12        -0.0264     -0.0023      0.0021      0.0007      0.0036
        13         0.0150      0.0026      0.0021      0.0002      0.0012
        14         0.0270     -0.0213      0.0079      0.0012      0.0061
        15         0.0090     -0.0101      0.0026      0.0002      0.0009
        16        -0.0150      0.0296      0.0016      0.0011      0.0052
        17         0.0100     -0.0654     -0.0147      0.0046      0.0217
        18        -0.0550     -0.0066      0.0095      0.0032      0.0146
        19         0.0871      0.0060      0.0020      0.0076      0.0350
        20         0.0012     -0.0196     -0.0094      0.0005      0.0021
        21         0.0055      0.0180      0.0152      0.0006      0.0026
        22         0.0307     -0.0021     -0.0084      0.0010      0.0045
        23        -0.0057     -0.0134     -0.0069      0.0003      0.0011
        24        -0.0038     -0.0304     -0.0007      0.0009      0.0041
        25        -0.0008      0.0246     -0.0007      0.0006      0.0026
        26        -0.0108     -0.0261      0.0040      0.0008      0.0035
        27         0.0028      0.0263     -0.0068      0.0007      0.0032
        28         0.0003     -0.0293     -0.0052      0.0009      0.0038
        29        -0.0068      0.0199      0.0099      0.0005      0.0023
        30         0.0750     -0.0162      0.0167      0.0062      0.0261
        31        -0.0048      0.0005     -0.0289      0.0009      0.0036
        32        -0.0124      0.0010     -0.0002      0.0002      0.0006
        33         0.0324      0.0073     -0.0073      0.0012      0.0047
        34        -0.0092      0.0057     -0.0148      0.0003      0.0014
        35        -0.0370     -0.0047      0.0184      0.0017      0.0069
        36         0.0411     -0.0019     -0.0088      0.0018      0.0070
        37        -0.0013     -0.0019     -0.0076      0.0001      0.0002
        38        -0.0069     -0.0063      0.0022      0.0001      0.0004
        39         0.0146     -0.0139      0.0097      0.0005      0.0020
        40        -0.0656      0.0613     -0.0032      0.0081      0.0311
        41        -0.1216      0.0129      0.0028      0.0150      0.0573
        42        -0.0274     -0.0347      0.0057      0.0020      0.0076
        43         0.0482     -0.0061     -0.0009      0.0024      0.0089
        44        -0.0040      0.0372      0.0097      0.0015      0.0057
        45         0.0789      0.0548      0.0341      0.0104      0.0391
        46        -0.0021     -0.0138     -0.0004      0.0002      0.0007
        47        -0.0128     -0.0267     -0.0081      0.0009      0.0035
        48        -0.0208     -0.0278      0.0205      0.0016      0.0059
        49         0.0004     -0.0033     -0.0074      0.0001      0.0002
        50        -0.0348      0.0208      0.0078      0.0017      0.0061
        51         0.0261      0.0245      0.0176      0.0016      0.0057
        52         0.1397      0.0116     -0.0340      0.0208      0.0742
        53        -0.0469      0.0658      0.0064      0.0066      0.0234
        54        -0.0654     -0.0201      0.0141      0.0049      0.0173
        55         0.0205     -0.0246      0.0216      0.0015      0.0053
        56        -0.0345      0.0331     -0.0057      0.0023      0.0081
        57        -0.0370     -0.0174      0.0145      0.0019      0.0065
        58        -0.0052      0.0424     -0.0107      0.0019      0.0067
        59        -0.0412      0.0650     -0.0260      0.0066      0.0230
        60        -0.0029     -0.0444      0.0059      0.0020      0.0070
        61         0.0575      0.0182     -0.0383      0.0051      0.0176
        62         0.0643      0.0803      0.0006      0.0106      0.0363
        63        -0.0303      0.0161     -0.0172      0.0015      0.0050
        64        -0.0026     -0.0263      0.0025      0.0007      0.0024
        65        -0.0305      0.0051      0.0120      0.0011      0.0037
        66        -0.0193      0.0134      0.0145      0.0008      0.0025
        67        -0.0358     -0.0202      0.0072      0.0017      0.0058
        68         0.0541     -0.0060      0.0107      0.0031      0.0102
        69        -0.0357      0.0146      0.0092      0.0016      0.0052
        70         0.0111     -0.0120     -0.0013      0.0003      0.0009
        71        -0.0381     -0.0048      0.0144      0.0017      0.0055
        72        -0.0358      0.0106     -0.0032      0.0014      0.0046
        73        -0.0366      0.0185      0.0197      0.0021      0.0068
        74        -0.1052     -0.0138      0.0118      0.0114      0.0371
        75        -0.0175      0.0066     -0.0104      0.0005      0.0015
        76         0.0253      0.0163     -0.0054      0.0009      0.0030
        77         0.0090      0.0094     -0.0042      0.0002      0.0006
        78        -0.0222     -0.0357      0.0207      0.0022      0.0070
        79        -0.0124      0.0032     -0.0074      0.0002      0.0007
        80         0.0074      0.0428      0.0036      0.0019      0.0060
        81         0.0179     -0.0186     -0.0062      0.0007      0.0022
        82         0.0108      0.0232      0.0306      0.0016      0.0050
        83        -0.1007      0.0003     -0.0122      0.0103      0.0323
        84         0.0249     -0.1223      0.0105      0.0157      0.0491
        85         0.0065     -0.0571      0.0089      0.0034      0.0105
        86         0.0196      0.0170     -0.0005      0.0007      0.0021
        87        -0.0169      0.0533      0.0030      0.0031      0.0097
        88         0.0026     -0.0399     -0.0226      0.0021      0.0065
        89        -0.0006      0.0497     -0.0036      0.0025      0.0077
        90         0.0110     -0.1628     -0.0123      0.0268      0.0825
        91        -0.0197     -0.0128      0.0172      0.0008      0.0026
        92         0.0134      0.1365      0.0250      0.0194      0.0594
        93         0.0056     -0.0272      0.0051      0.0008      0.0024
        94        -0.0004      0.0153     -0.0203      0.0006      0.0020
        95         0.0072     -0.0037      0.0029      0.0001      0.0002
        96        -0.0306     -0.0315     -0.0334      0.0030      0.0092
        97         0.0859      0.0066     -0.0152      0.0077      0.0230
        98         0.0205      0.0133     -0.0013      0.0006      0.0018
        99        -0.0335      0.0175     -0.0167      0.0017      0.0051
       100         0.0553      0.0048      0.0165      0.0033      0.0100
 Ground to excited state transition magnetic dipole moments (Au):
       state          X           Y           Z
         1        -0.1489      0.6377     -0.0348
         2        -0.4576     -0.1680      0.0265
         3        -0.3470     -0.0752     -0.1132
         4         0.0899     -0.0005     -0.0851
         5         0.0960     -0.0171      0.0201
         6         0.7642      0.1934      0.1016
         7        -0.1690      0.5840      0.3905
         8        -0.1063      0.2956      0.1532
         9        -0.0338     -0.2890     -0.3790
        10         0.0492     -0.3359     -0.1413
        11         0.1897     -0.2705     -0.3403
        12        -0.0188     -0.0900     -0.3292
        13         0.0683     -0.0767     -0.0157
        14        -0.1560     -0.0749     -0.0952
        15         0.1151     -0.0269     -0.0219
        16        -0.1687      0.0432      0.0032
        17        -0.0260      0.0074     -0.0876
        18         0.0070      0.0204      0.1166
        19         0.0077     -0.0466     -0.1633
        20         0.0876     -0.0760     -0.0387
        21         0.1624     -0.0043     -0.0771
        22        -0.1774      0.0578     -0.1951
        23         0.6565     -0.1399      0.1091
        24         0.0877      0.0342      0.0574
        25         0.0526      0.0829      0.0645
        26        -0.2128     -0.1274      0.1699
        27         0.1669     -0.1080     -0.2009
        28         0.2466      0.1825      0.0339
        29         0.0794     -0.2590      0.0479
        30        -0.0986      0.0933     -0.7173
        31         0.0222      0.1287     -0.0417
        32        -0.1133     -0.0061      0.1207
        33        -0.1155      0.3922     -0.5307
        34        -0.1988     -0.3428      0.2688
        35        -0.2166     -0.4901      0.1001
        36        -0.0856     -0.2315     -0.0679
        37         0.1649      0.4132     -0.3419
        38        -0.0116     -0.0771     -0.0421
        39        -0.0361     -0.1133      0.1104
        40        -0.0440      0.1091     -0.6208
        41        -0.2821     -0.2270     -1.0907
        42         0.0065     -0.0515     -0.3159
        43        -0.0123     -0.0143     -0.0125
        44        -0.1157     -0.1665     -0.0893
        45        -0.0086      0.0128      1.1712
        46        -0.0974     -0.0616      0.0102
        47         0.1714      0.0129      0.5742
        48        -0.1178      0.0006     -0.2143
        49         0.0129     -0.1376      0.0719
        50        -0.1988      0.0949     -0.6754
        51        -0.2506     -0.0545     -0.5474
        52        -0.3577      0.0707     -1.2388
        53         0.2073      0.1484      0.7216
        54         0.0017     -0.0245     -0.1661
        55        -0.1554      0.1155     -0.1469
        56         0.0574     -0.1232      0.1057
        57        -0.0003      0.0054      0.3320
        58         0.0950     -0.2302      0.3150
        59         0.2423     -0.0167     -0.0407
        60        -0.1528      0.1479     -0.0765
        61        -0.0752      0.0242     -0.1148
        62        -0.2933     -0.0220     -0.3619
        63        -0.2720     -0.0266      0.0185
        64         0.0639      0.0663      0.2648
        65         0.1274     -0.1262      0.0898
        66         0.0355     -0.1153      0.3420
        67        -0.0120      0.0014      0.1460
        68        -0.0540      0.0454      0.0722
        69        -0.0112     -0.0691     -0.1082
        70        -0.1019      0.0114     -0.4174
        71         0.0208      0.0476      0.0562
        72        -0.0538      0.0566     -0.0815
        73        -0.0726     -0.0699     -0.1869
        74        -0.0512      0.1736     -0.3576
        75         0.0580     -0.1830     -0.0398
        76        -0.0362     -0.0439     -0.0736
        77        -0.0147      0.0167     -0.2481
        78        -0.0496      0.1545     -0.0665
        79         0.1240     -0.0048      0.0847
        80        -0.0506     -0.0255     -0.1146
        81         0.0510     -0.0929      0.1451
        82        -0.1432     -0.0022     -0.0062
        83         0.0787     -0.0283     -0.5060
        84        -0.0587     -0.2272      0.0166
        85        -0.1843     -0.0667     -0.0533
        86         0.0073     -0.0208     -0.0719
        87         0.0164      0.1080      0.1102
        88         0.0286      0.1963     -0.1528
        89        -0.1205     -0.0621      0.0447
        90         0.0273     -0.1298     -0.0743
        91        -0.0820     -0.0079     -0.0850
        92         0.2675     -0.0916     -0.0239
        93        -0.1044      0.1738      0.0162
        94        -0.0187     -0.1018     -0.2237
        95        -0.0186      0.0428      0.2770
        96        -0.1323      0.1381     -0.0137
        97         0.3034      0.0506      0.3904
        98         0.1416     -0.1640      0.1894
        99         0.0499     -0.0433     -0.5859
       100         0.0309      0.0033      0.1362
 Ground to excited state transition velocity quadrupole moments (Au):
       state          XX          YY          ZZ          XY          XZ          YZ
         1         0.0089     -0.0049      0.0034     -0.0135     -0.0048      0.0039
         2        -0.0516      0.0389     -0.0041     -0.0132     -0.0022     -0.0002
         3         0.1999     -0.1269      0.0257     -0.0191      0.0097      0.0093
         4        -0.2238      0.1258     -0.0276     -0.0060     -0.0129      0.0163
         5         0.0039      0.0178     -0.0073     -0.0021      0.0298      0.0070
         6        -0.0215     -0.0247     -0.0151     -0.0021     -0.0149      0.0279
         7        -0.0915     -0.0696     -0.0025     -0.0011     -0.0375      0.0003
         8         0.1234      0.1329      0.0071     -0.0020     -0.0307      0.0173
         9        -0.0191     -0.0010     -0.0015      0.0589      0.0605     -0.0587
        10         0.0430     -0.0024     -0.0083      0.0182      0.0280     -0.0292
        11         0.1534     -0.1120      0.0403      0.0147     -0.0191      0.0125
        12        -0.0815      0.0073     -0.0109      0.0322      0.0096     -0.0231
        13        -0.1593      0.0836     -0.0153     -0.0062      0.0073      0.0008
        14        -0.5913      0.2744     -0.0588     -0.0125      0.0344      0.0250
        15        -0.0618     -0.0351      0.0070     -0.0055     -0.0036     -0.0026
        16         0.0672      0.0046      0.0074      0.0161      0.0131     -0.0190
        17        -0.2092      0.4430     -0.1403     -0.0025     -0.0170      0.0821
        18        -0.0548      0.0203     -0.0035      0.0470      0.0261     -0.0394
        19         0.0555     -0.0537      0.0100     -0.0721     -0.0140      0.0561
        20         0.0310      0.0714     -0.0473     -0.0028     -0.0001      0.0260
        21        -0.0459     -0.1685      0.0538      0.0116     -0.0027     -0.0651
        22         0.0562      0.0395     -0.0077     -0.0164     -0.0104      0.0261
        23        -0.0601      0.0070     -0.0122     -0.0143      0.0001      0.0054
        24        -0.1232      0.0823      0.0008     -0.0019      0.0332      0.0252
        25        -0.2151      0.0101     -0.0473     -0.0074      0.0459      0.0124
        26        -0.0838      0.1414      0.0177      0.0080      0.0498     -0.0031
        27        -0.0790      0.0342     -0.0418      0.0171      0.0089     -0.0289
        28        -0.0656      0.0087      0.0400      0.0339     -0.0194      0.0036
        29         0.0460      0.0569     -0.0039     -0.0242      0.0144     -0.0131
        30         0.0435     -0.0689      0.0426     -0.0887      0.0339      0.0245
        31        -0.3651      0.2681     -0.0699      0.0367     -0.0139      0.0048
        32        -0.0586      0.0423     -0.0054      0.0377     -0.0003     -0.0129
        33         0.2649     -0.0915      0.0249      0.0114     -0.0070      0.0300
        34         0.1384     -0.0066     -0.0054     -0.0751     -0.0036      0.0070
        35         0.0559     -0.0363      0.0073      0.0990      0.0526     -0.0987
        36        -0.2072      0.1730     -0.0590     -0.0949     -0.0091      0.0304
        37        -0.2108      0.0740      0.0118     -0.0328     -0.0373      0.0243
        38        -0.0764     -0.0171      0.0261     -0.0267      0.0056     -0.0210
        39        -0.0135     -0.0549      0.0254      0.0176      0.0181     -0.0232
        40         0.0588      0.0764     -0.0260     -0.0509     -0.0239     -0.0556
        41         0.0806     -0.0224     -0.0195      0.0041      0.0384     -0.0954
        42        -0.1740      0.1352     -0.0486      0.0085      0.0824      0.0453
        43         0.0226     -0.0641      0.0099      0.0514      0.0342     -0.0034
        44         0.1201     -0.0065     -0.0063      0.0158      0.0089     -0.0730
        45         0.1562     -0.0344      0.0087      0.0747      0.0712      0.0604
        46         0.0544     -0.0215     -0.0112      0.0467     -0.0019     -0.0141
        47        -0.0912      0.0491     -0.0120      0.0067      0.0202      0.0230
        48         0.1603     -0.0237      0.0032      0.1338     -0.2478     -0.0010
        49         0.0333     -0.1234      0.0465     -0.1056      0.1351      0.0339
        50        -0.1187      0.1041     -0.0534      0.1938      0.0204     -0.0487
        51        -0.0355     -0.0248      0.0101      0.1864      0.1710     -0.0703
        52         0.1587      0.0259      0.0001      0.2186     -0.1340     -0.1564
        53         0.2544      0.2311     -0.1152     -0.1587     -0.2459      0.1571
        54        -0.0122     -0.0526      0.0409     -0.0779     -0.0520      0.0021
        55        -0.2484      0.0103     -0.0121      0.0639     -0.1735     -0.0106
        56         0.0385      0.0738      0.0038     -0.0487      0.1217      0.0169
        57         0.0791     -0.1239      0.0595     -0.0998     -0.0177      0.0414
        58         0.0739      0.1064     -0.0224     -0.0692      0.1188      0.0538
        59         0.2999      0.0287     -0.0569     -0.0124     -0.0541     -0.1040
        60        -0.0913     -0.2204      0.0598      0.0262     -0.1506     -0.1301
        61         0.0937      0.0445     -0.0575      0.0407     -0.0429      0.0321
        62         0.2265      0.2374     -0.0264      0.0942      0.0386     -0.0086
        63         0.0370     -0.0093      0.0163     -0.0199      0.0128      0.0292
        64         0.0094     -0.0836      0.0245     -0.0449     -0.0544      0.0257
        65        -0.0090     -0.0365      0.0068     -0.0386     -0.0030      0.0233
        66         0.0535     -0.0612     -0.0217      0.0300     -0.0335      0.0244
        67        -0.1125      0.0175      0.0328      0.0337      0.1163     -0.0334
        68         0.0453     -0.0401     -0.0187      0.0196      0.0121      0.0961
        69         0.0945      0.1532     -0.0884     -0.0028     -0.0482     -0.0134
        70         0.0583     -0.1167      0.0239     -0.0080      0.0142     -0.0092
        71         0.0520     -0.1127      0.0057     -0.1358     -0.0301      0.0358
        72        -0.1163      0.1455     -0.0066     -0.0693      0.0496      0.0589
        73         0.0827      0.0717     -0.0687     -0.0662      0.0720     -0.0474
        74        -0.1704      0.0422     -0.0144      0.1350     -0.1244     -0.1028
        75        -0.0051     -0.0841      0.0791     -0.0066      0.0356      0.0309
        76         0.1005      0.2937      0.0264      0.0120     -0.0059      0.0218
        77        -0.1532      0.0768     -0.0800      0.0676      0.0635     -0.0417
        78         0.1012     -0.0349     -0.0811      0.0036     -0.0601     -0.0863
        79        -0.0183     -0.0417     -0.0131      0.0373     -0.0009     -0.0916
        80        -0.1376      0.2422     -0.0513      0.0142      0.0133     -0.0122
        81        -0.2806      0.1145     -0.0715     -0.0227      0.1369      0.0321
        82        -0.0633     -0.1683      0.0524      0.0749     -0.0349     -0.0974
        83        -0.0271     -0.1162      0.0767      0.0608      0.0268     -0.0700
        84         0.3081     -1.0763      0.2263      0.0031     -0.0496     -0.0937
        85         0.1369     -0.3258      0.0417     -0.0083     -0.0575      0.0400
        86        -0.1002      0.1333      0.0332     -0.0374      0.0062     -0.0360
        87        -0.0296      0.3153     -0.0501      0.0077     -0.1281      0.0186
        88         0.3558     -0.1009     -0.0045      0.0980     -0.1788      0.0654
        89        -0.3964      0.2283      0.0166     -0.0175      0.0841      0.0430
        90         0.4414     -1.2701      0.2863      0.0094      0.0487      0.0709
        91        -0.0513     -0.0783      0.0288      0.0053      0.0392     -0.0390
        92        -0.3703      0.7203     -0.1021      0.0784      0.0938      0.0643
        93         0.1363     -0.1812     -0.0277      0.0653     -0.0707      0.0201
        94        -0.1888      0.1614      0.0086     -0.0205      0.0201     -0.0410
        95        -0.0382      0.0350      0.0180      0.0517     -0.0712      0.0422
        96        -0.1247     -0.0239      0.0133      0.0480      0.0874      0.0564
        97        -0.1779      0.2755     -0.1079     -0.0766     -0.0979      0.0611
        98        -0.2310      0.1663     -0.0784     -0.0111      0.1262      0.0271
        99         0.0435      0.0692     -0.0675      0.0869     -0.0281     -0.1011
       100        -0.2225      0.0923     -0.0220      0.2205      0.0428     -0.0127
 <0|del|b> * <b|rxdel|0> + <0|del|b> * <b|delr+rdel|0>
 Rotatory Strengths (R) in cgs (10**-40 erg-esu-cm/Gauss)
       state          XX          YY          ZZ    R(velocity)    E-M Angle
         1         1.5529     -1.4010     -0.4697     -0.1059       90.00
         2        -0.2439     -0.8969     -0.3013     -0.4807       95.34
         3         3.2822     -1.0692     -3.6063     -0.4644       93.99
         4        -3.4490     -0.3307      2.1923     -0.5291       95.39
         5         2.1841     -0.6240     -1.1272      0.1443       90.00
         6       -11.7954     12.6335      9.5676      3.4686       83.79
         7        39.7323     -8.3345     12.3944     14.5974       73.89
         8       -29.3983     -4.4838    -27.1500    -20.3440      159.22
         9        -4.9242     22.0487     -9.0004      2.7080       88.02
        10        -0.3931     -2.8303     -7.9432     -3.7222       98.43
        11        -4.5875      9.4338     -6.1506     -0.4348       91.77
        12        -1.0675      0.9664      0.1927      0.0305       90.00
        13        -0.7041      2.7124      2.2198      1.4094       60.24
        14         3.8976    -10.9707    -10.5294     -5.8675      118.80
        15         0.4233      2.4936      3.5145      2.1438       40.91
        16         2.3116      7.0485      9.8487      6.4029       48.64
        17        -0.6626      4.5359     -1.1173      0.9187       84.91
        18         3.9103      5.9998     -7.0109      0.9664       84.91
        19        -1.6417     13.0855    -11.1541      0.0966       90.00
        20         4.4866      1.1256      3.7351      3.1157       42.71
        21        -2.4276     -1.9251      2.6631     -0.5632       94.71
        22         3.8304     -7.3741    -14.8877     -6.1438      117.14
        23         2.8614    -10.7653     -4.2449     -4.0496      103.71
        24        -0.1659     -1.0851     -5.2379     -2.1630      114.77
        25         1.9927     -0.2261      7.1770      2.9812       47.48
        26        12.1803      6.7904      9.7865      9.5857       42.73
        27        -4.1403      4.2441     -4.6658     -1.5207       97.48
        28       -14.1943      0.1831    -10.6453     -8.2188      126.34
        29       -11.6952      0.5919    -12.3350     -7.8128      144.77
        30       -32.3774    -36.0177    -25.2938    -31.2296      111.39
        31         0.4912      4.7581     -0.0482      1.7337       73.08
        32        -0.0823      3.4133      2.7311      2.0207       48.19
        33        14.3987      2.5895     -4.1174      4.2903       82.44
        34       -10.3273     -7.1424     -0.1802     -5.8833      117.88
        35        13.1061     24.6891     13.5541     17.1164       57.56
        36         3.9362     -5.2937     -9.0727     -3.4767      103.27
        37         4.1563      4.3786     -1.8827      2.2174       69.06
        38         0.7774      0.3960      0.8032      0.6589       55.89
        39         6.3483      0.0710      2.3431      2.9208       54.31
        40        21.0126     17.0507      9.1271     15.7301       78.28
        41       -13.2366     86.9312     41.1580     38.2842       78.40
        42         5.8569     -6.5687     -0.0095     -0.2404       90.72
        43         0.5254     -1.4047     -1.1090     -0.6628      116.67
        44       -14.5171     -0.5289    -11.4242     -8.8234      140.40
        45        78.4855     82.8506     -1.6788     53.2191       70.44
        46         1.5760      0.4945      2.0716      1.3807       49.42
        47        -8.8688    -13.9203     -5.4671     -9.4188      112.98
        48       -16.4827     -8.9603     17.9369     -2.5020      101.39
        49         2.2183     -2.4971      0.0003     -0.0929       90.00
        50        -4.2164      3.4615     14.5073      4.5841       82.93
        51       -22.5780    -40.4826     -3.5252    -22.1953      136.60
        52        70.1868    -42.1137    -54.6094     -8.8454       92.16
        53        55.7633    -21.5722    -16.5377      5.8845       85.67
        54        -7.5118     -2.8044      2.9434     -2.4576       99.62
        55       -16.6392    -14.8538     -2.8667    -11.4532      168.48
        56       -15.6815     -6.4080     -2.6862     -8.2586      143.47
        57         5.4744      8.7636      3.2391      5.8257       70.80
        58       -32.1518     -9.0373     -9.0958    -16.7616      140.45
        59         7.0231     -9.1560    -34.8019    -12.3116      120.05
        60       -24.8688      0.3700      0.3401     -8.0529      130.45
        61         7.4216      6.3488    -11.9028      0.6225       87.06
        62        -9.1714    -35.9014    -30.9226    -25.3318      115.78
        63        -1.1001     12.0812     16.0637      9.0149       44.56
        64        -4.7202      0.9519     -0.7425     -1.5036       99.73
        65        -0.0241     -5.4787     -6.8656     -4.1228      121.28
        66         7.6616      6.0063     -3.9103      3.2525       74.05
        67         6.4029      4.3026     -5.5642      1.7138       76.25
        68         1.3821      5.0083    -14.9136     -2.8411      115.58
        69        -2.3303     -0.1674     -3.1506     -1.8828      108.34
        70         1.0313     -1.2085     -2.3251     -0.8341       95.84
        71        -2.6419      1.0666      0.8551     -0.2401       93.78
        72         0.9668     -0.2465      8.9586      3.2263       48.76
        73       -13.1949      3.4989      1.6659     -2.6767      103.86
        74       -11.6241     17.9200    -10.5428     -1.4156       91.65
        75        -1.6243     -2.0590     -2.4542     -2.0458      115.49
        76        -0.4909      0.1632     -3.8708     -1.3995      115.74
        77         0.5389      1.3866      1.6843      1.2033       71.72
        78       -15.1382      2.6405     -7.0653     -6.5210      134.82
        79        -1.5419     -1.2684     -4.5362     -2.4488      168.96
        80        -3.3960     -1.5472     -1.3494     -2.0975      109.66
        81         5.8716      0.7399     -0.8014      1.9367       68.68
        82         4.7823     -8.4909     -2.2666     -1.9917      108.21
        83         8.9810     10.0084    -24.9355     -1.9820       91.97
        84        36.4008     -6.0589     57.6425     29.3282       25.92
        85        -0.0387     -2.2161      9.2928      2.3460       79.60
        86        -0.6728     -0.9016      0.9885     -0.1953       95.22
        87        21.3065     -0.4697     -1.7065      6.3768       48.06
        88       -22.5294      9.7108     -1.3055     -4.7081      111.96
        89       -12.0997     -0.2927      1.9565     -3.4787      116.51
        90        48.7780      3.4484     20.7924     24.3396       26.04
        91        -1.2480      1.3439      0.7242      0.2733       85.81
        92       -38.7906      3.0472      4.8891    -10.2848      103.92
        93       -10.0951     -1.1730     -5.6782     -5.6488      155.62
        94         5.0181      6.7227     -2.0353      3.2351       61.43
        95         0.8248      1.3109     -0.5361      0.5332       78.17
        96        -4.3936      7.0157     -2.1344      0.1626       89.18
        97        -6.0355     38.6634     32.7288     21.7856       61.91
        98        -6.5098      5.1139      2.9477      0.5173       86.04
        99        12.8434     20.6143    -10.0409      7.8056       72.43
       100         9.0396     -0.6058      4.1818      4.2052       60.59
 1/2[<0|r|b>*<b|rxdel|0> + (<0|rxdel|b>*<b|r|0>)*]
 Rotatory Strengths (R) in cgs (10**-40 erg-esu-cm/Gauss)
       state          XX          YY          ZZ     R(length)
         1        -9.2465     14.2329      1.2152      2.0672
         2         6.4859     -5.2210     -2.2628     -0.3326
         3         2.6912     -1.4700      8.0669      3.0960
         4         2.2197      0.0652     -3.6660     -0.4604
         5        -0.9407      1.0408     -0.0865      0.0045
         6        37.2789    -22.2042     -9.1163      1.9862
         7       -32.8068     39.9909     12.4158      6.5333
         8        -8.1739    -27.4087     -1.0697    -12.2174
         9        15.9286     -3.5638     -1.6616      3.5677
        10       -11.5308      1.9921     -1.3531     -3.6306
        11         6.2340    -14.8558      6.6260     -0.6653
        12         2.6931     -0.7154     -4.6813     -0.9012
        13         5.1376     -1.0639     -0.2373      1.2788
        14       -22.6324      6.5139     -4.1755     -6.7647
        15         4.7681      1.7813     -0.3587      2.0636
        16        12.1158      7.7262      0.0145      6.6188
        17        -1.5664     -2.5203      7.1160      1.0098
        18        -1.8455     -0.6453      4.5549      0.6880
        19         3.3774     -1.3836     -0.5035      0.4968
        20         0.0210      6.9852      1.8709      2.9590
        21         3.6450     -0.1946     -6.6915     -1.0804
        22       -27.4993      0.8130      8.3870     -6.0998
        23       -26.7336     16.5088     -2.2577     -4.1608
        24        -3.1428     -4.4817     -0.3920     -2.6722
        25        -0.0533      7.9773     -0.9835      2.3135
        26        11.3749     10.5491      1.2038      7.7093
        27         0.6041     -9.6751      4.7681     -1.4343
        28         1.0979    -25.5417     -0.1040     -8.1826
        29        -3.3858    -20.9920      2.1330     -7.4149
        30       -32.7809     -5.7212    -46.1994    -28.2338
        31        -0.1945      0.0345      4.1906      1.3435
        32         5.3549     -0.0779     -0.1816      1.6985
        33       -17.2739      8.3982     14.2508      1.7917
        34        10.0168     -5.2453    -13.7754     -3.0013
        35        35.9724      5.1729      5.8119     15.6524
        36       -11.7573      1.8433      1.8275     -2.6955
        37         1.9679     -1.9156      4.7958      1.6160
        38         0.3450      2.1724     -0.4597      0.6859
        39        -1.5163      7.1674      4.7838      3.4783
        40        11.5310     28.0617      0.3184     13.3037
        41       141.5625    -11.8429     -1.8312     42.6295
        42        -0.7589      7.8131      0.4802      2.5115
        43        -2.4790      0.4474      0.0237     -0.6693
        44         3.2242    -24.9978     -3.7225     -8.4987
        45        -2.8268      2.8489    147.7665     49.2629
        46         0.8780      3.3968     -0.1075      1.3891
        47        -3.3874     -1.3571    -21.3314     -8.6920
        48         9.0606     -0.0632    -16.0423     -2.3483
        49        -0.0595      2.8197     -1.5940      0.3887
        50        24.8975      8.1632    -15.4968      5.8546
        51       -25.6571     -4.6550    -36.4789    -22.2637
        52      -194.1811      3.0851    158.8540    -10.7473
        53       -37.6237     37.7853      3.1803      1.1140
        54        -0.4359      2.0214     -9.6602     -2.6916
        55       -12.5097    -10.8594    -11.7319    -11.7003
        56        -7.5541    -14.4620     -2.4963     -8.1708
        57         0.0437     -0.3682     18.1561      5.9439
        58        -2.3756    -35.3875    -15.3713    -17.7115
        59       -35.0615     -3.7963      3.6744    -11.7278
        60        -0.2709    -25.3045     -2.3254     -9.3003
        61       -16.0702      1.8254     19.5843      1.7798
        62       -67.6839     -6.3901      3.6894    -23.4615
        63        27.5519     -1.2393     -1.0796      8.4110
        64        -1.1840     -6.3863      2.5266     -1.6812
        65       -12.9760     -3.0411      3.9432     -4.0246
        66        -3.4198     -5.1966     15.4843      2.2893
        67         1.5738     -0.0913      3.6836      1.7220
        68       -10.8612     -0.7212      2.4931     -3.0297
        69         1.5222     -4.8669     -2.5090     -1.9512
        70        -4.6550     -0.5398      3.2615     -0.6444
        71        -2.6545     -1.6355      2.7754     -0.5049
        72         5.9663      2.5137      1.0349      3.1717
        73         9.3821     -4.9322    -10.8515     -2.1339
        74        18.6462    -11.5035    -18.0792     -3.6455
        75        -3.3428     -4.3183      1.1245     -2.1788
        76        -3.0750     -2.9677      1.8066     -1.4120
        77        -0.4573      0.4232      3.1682      1.0447
        78         3.9886    -19.0359     -4.4214     -6.4896
        79        -5.9788     -0.0714     -2.7376     -2.9293
        80        -1.2722     -3.7633     -1.2363     -2.0906
        81         2.9867      6.1604     -2.9824      2.0549
        82        -5.0107     -0.1866     -0.6695     -1.9556
        83       -26.0185     -0.3742     19.4538     -2.3129
        84        -4.7599     94.4908      0.6632     30.1314
        85        -3.1112     13.4244     -1.4909      2.9408
        86         0.4975     -0.9324     -0.2011     -0.2120
        87        -0.8691     19.8247      1.8545      6.9367
        88         0.4509    -21.3416     13.2960     -2.5316
        89        -0.0801     -9.4292     -0.0911     -3.2001
        90         1.1954     68.3904      3.1948     24.2602
        91         4.9862      0.3963     -5.0106      0.1239
        92        13.1220    -43.0431     -1.9723    -10.6311
        93        -2.4722    -14.7193      0.1170     -5.6915
        94        -0.0044     -4.5854     13.0986      2.8363
        95        -0.3792     -0.4388      2.6571      0.6130
        96        14.0035    -17.3142      1.5750     -0.5785
        97        80.7902      1.4947    -28.9508     17.7780
        98         8.6733     -7.3020     -2.6312     -0.4200
        99        -5.0904     -2.7527     36.6852      9.6140
       100         5.7291      0.0388      7.6315      4.4665
  1/2[<0|del|b>*<b|r|0> + (<0|r|b>*<b|del|0>)*] (Au)
       state          X           Y           Z        Dip. S.   Osc.(frdel)
         1        -0.0002     -0.0000     -0.0001      0.0002      0.0002
         2         0.0000     -0.0000     -0.0004      0.0004      0.0003
         3         0.0000     -0.0000     -0.0005      0.0005      0.0003
         4        -0.0002     -0.0023     -0.0004      0.0029      0.0019
         5        -0.0000     -0.0011     -0.0000      0.0011      0.0007
         6        -0.0004     -0.0017     -0.0016      0.0037      0.0024
         7        -0.0081     -0.0016     -0.0003      0.0099      0.0066
         8        -0.0012     -0.0036     -0.0000      0.0049      0.0033
         9        -0.0554     -0.0001     -0.0000      0.0554      0.0370
        10        -0.0117     -0.0000     -0.0000      0.0117      0.0078
        11        -0.0004     -0.0010     -0.0001      0.0015      0.0010
        12        -0.0053      0.0000     -0.0000      0.0053      0.0036
        13        -0.0016     -0.0001     -0.0000      0.0017      0.0011
        14        -0.0055     -0.0026     -0.0005      0.0086      0.0058
        15        -0.0005     -0.0009     -0.0001      0.0015      0.0010
        16        -0.0015     -0.0075     -0.0000      0.0090      0.0060
        17        -0.0008     -0.0317     -0.0017      0.0342      0.0228
        18        -0.0206     -0.0003     -0.0005      0.0214      0.0143
        19        -0.0539     -0.0003     -0.0000      0.0542      0.0361
        20        -0.0000     -0.0025     -0.0006      0.0032      0.0021
        21        -0.0002     -0.0011     -0.0019      0.0032      0.0021
        22        -0.0067      0.0000     -0.0005      0.0072      0.0048
        23        -0.0003     -0.0022     -0.0002      0.0028      0.0018
        24        -0.0002     -0.0056     -0.0000      0.0058      0.0039
        25        -0.0000     -0.0034     -0.0000      0.0034      0.0022
        26        -0.0008     -0.0031     -0.0000      0.0039      0.0026
        27        -0.0000     -0.0033     -0.0002      0.0036      0.0024
        28        -0.0000     -0.0058     -0.0000      0.0058      0.0039
        29        -0.0004     -0.0023     -0.0006      0.0033      0.0022
        30        -0.0353     -0.0014     -0.0015      0.0382      0.0255
        31        -0.0001     -0.0000     -0.0041      0.0042      0.0028
        32        -0.0008     -0.0000     -0.0000      0.0008      0.0006
        33        -0.0069     -0.0002     -0.0003      0.0074      0.0049
        34        -0.0007     -0.0001     -0.0011      0.0019      0.0012
        35        -0.0087     -0.0001     -0.0015      0.0103      0.0068
        36        -0.0080     -0.0000     -0.0003      0.0083      0.0056
        37         0.0000     -0.0000     -0.0002      0.0001      0.0001
        38        -0.0003     -0.0003     -0.0000      0.0006      0.0004
        39        -0.0009     -0.0012     -0.0006      0.0027      0.0018
        40        -0.0243     -0.0223     -0.0000      0.0466      0.0311
        41        -0.0863     -0.0010     -0.0000      0.0873      0.0582
        42        -0.0046     -0.0074      0.0000      0.0120      0.0080
        43        -0.0137     -0.0003     -0.0000      0.0140      0.0093
        44        -0.0002     -0.0079     -0.0006      0.0086      0.0058
        45        -0.0365     -0.0173     -0.0061      0.0599      0.0399
        46        -0.0000     -0.0011     -0.0000      0.0011      0.0007
        47        -0.0004     -0.0040     -0.0004      0.0048      0.0032
        48        -0.0023     -0.0042     -0.0022      0.0086      0.0057
        49         0.0000     -0.0001     -0.0002      0.0003      0.0002
        50        -0.0062     -0.0025     -0.0003      0.0089      0.0060
        51        -0.0038     -0.0030     -0.0017      0.0084      0.0056
        52        -0.1072     -0.0007     -0.0062      0.1141      0.0761
        53        -0.0120     -0.0237     -0.0000      0.0358      0.0238
        54        -0.0237     -0.0023     -0.0012      0.0272      0.0181
        55        -0.0023     -0.0033     -0.0024      0.0080      0.0054
        56        -0.0064     -0.0055     -0.0002      0.0121      0.0081
        57        -0.0074     -0.0017     -0.0011      0.0102      0.0068
        58        -0.0002     -0.0092     -0.0007      0.0101      0.0068
        59        -0.0084     -0.0209     -0.0033      0.0327      0.0218
        60         0.0000     -0.0107     -0.0003      0.0110      0.0073
        61        -0.0174     -0.0019     -0.0092      0.0285      0.0190
        62        -0.0210     -0.0330      0.0000      0.0539      0.0360
        63        -0.0043     -0.0011     -0.0014      0.0068      0.0045
        64        -0.0001     -0.0036     -0.0000      0.0037      0.0025
        65        -0.0044     -0.0002     -0.0007      0.0053      0.0035
        66        -0.0026     -0.0009     -0.0009      0.0044      0.0029
        67        -0.0066     -0.0019     -0.0003      0.0088      0.0059
        68        -0.0154     -0.0001     -0.0005      0.0160      0.0107
        69        -0.0069     -0.0015     -0.0003      0.0087      0.0058
        70        -0.0007     -0.0008     -0.0000      0.0015      0.0010
        71        -0.0069     -0.0002     -0.0010      0.0081      0.0054
        72        -0.0056     -0.0007     -0.0001      0.0063      0.0042
        73        -0.0067     -0.0018     -0.0016      0.0102      0.0068
        74        -0.0542     -0.0013     -0.0008      0.0563      0.0375
        75        -0.0014     -0.0002     -0.0004      0.0021      0.0014
        76        -0.0030     -0.0016     -0.0002      0.0048      0.0032
        77        -0.0004     -0.0003     -0.0001      0.0008      0.0005
        78        -0.0025     -0.0062     -0.0019      0.0107      0.0071
        79        -0.0008     -0.0001     -0.0003      0.0013      0.0008
        80        -0.0003     -0.0089     -0.0001      0.0092      0.0062
        81        -0.0015     -0.0017     -0.0002      0.0034      0.0023
        82        -0.0005     -0.0028     -0.0046      0.0080      0.0053
        83        -0.0471     -0.0000     -0.0007      0.0477      0.0318
        84        -0.0029     -0.0719     -0.0006      0.0754      0.0502
        85        -0.0002     -0.0162     -0.0004      0.0167      0.0112
        86        -0.0019     -0.0011      0.0000      0.0030      0.0020
        87        -0.0013     -0.0138     -0.0001      0.0152      0.0101
        88        -0.0001     -0.0061     -0.0028      0.0090      0.0060
        89         0.0000     -0.0107     -0.0000      0.0107      0.0071
        90        -0.0007     -0.1213     -0.0007      0.1227      0.0818
        91        -0.0017     -0.0009     -0.0014      0.0040      0.0027
        92        -0.0009     -0.0907     -0.0029      0.0946      0.0630
        93        -0.0002     -0.0033     -0.0001      0.0035      0.0023
        94         0.0000     -0.0010     -0.0017      0.0027      0.0018
        95        -0.0002     -0.0001     -0.0000      0.0003      0.0002
        96        -0.0046     -0.0056     -0.0054      0.0156      0.0104
        97        -0.0323     -0.0003     -0.0016      0.0342      0.0228
        98        -0.0018     -0.0008     -0.0000      0.0026      0.0018
        99        -0.0048     -0.0016     -0.0015      0.0079      0.0053
       100        -0.0145     -0.0001     -0.0013      0.0159      0.0106

 Excitation energies and oscillator strengths:
 
 Excited State   1:  3.008-A      1.5784 eV  785.50 nm  f=0.0004  <S**2>=2.012
    128B ->133B       -0.11975
    131B ->133B       -0.10725
    132B ->133B        0.96537
 This state for optimization and/or second-order correction.
 Total Energy, E(TD-HF/TD-DFT) =  -1998.89110449    
 Copying the excited state density for this state as the 1-particle RhoCI density.
 
 Excited State   2:  3.017-A      1.9205 eV  645.59 nm  f=0.0008  <S**2>=2.026
    134A ->135A       -0.33413
    134A ->137A        0.34541
    131B ->133B        0.84268
    132B ->135B        0.11223
 
 Excited State   3:  3.045-A      1.9851 eV  624.56 nm  f=0.0005  <S**2>=2.068
    134A ->135A        0.76119
    134A ->137A       -0.42125
    129B ->133B        0.10692
    131B ->133B        0.43809
 
 Excited State   4:  3.050-A      2.1687 eV  571.70 nm  f=0.0019  <S**2>=2.076
    134A ->135A        0.54154
    134A ->136A       -0.12399
    134A ->137A        0.80274
    131B ->133B       -0.10549
 
 Excited State   5:  3.062-A      2.5437 eV  487.42 nm  f=0.0005  <S**2>=2.094
    134A ->136A        0.98257
    134A ->137A        0.14128
 
 Excited State   6:  3.012-A      2.7427 eV  452.05 nm  f=0.0032  <S**2>=2.018
    134A ->138A        0.26924
    134A ->139A        0.10755
    128B ->135B       -0.10516
    131B ->133B       -0.14667
    132B ->134B       -0.29477
    132B ->135B        0.85411
 
 Excited State   7:  3.030-A      2.9959 eV  413.84 nm  f=0.0064  <S**2>=2.045
    134A ->138A       -0.57813
    134A ->139A        0.37792
    131B ->134B       -0.19924
    131B ->135B        0.62417
    132B ->135B        0.18051
 
 Excited State   8:  3.062-A      3.0967 eV  400.38 nm  f=0.0022  <S**2>=2.095
    134A ->138A        0.72829
    134A ->139A        0.33865
    131B ->134B       -0.16134
    131B ->135B        0.47221
    132B ->135B       -0.18518
 
 Excited State   9:  3.056-A      3.2458 eV  381.99 nm  f=0.0354  <S**2>=2.085
    133A ->135A       -0.39814
    133A ->137A        0.73119
    134A ->139A       -0.45696
    131B ->135B        0.15573
 
 Excited State  10:  3.040-A      3.2764 eV  378.41 nm  f=0.0088  <S**2>=2.060
    133A ->135A       -0.27312
    133A ->137A        0.38713
    134A ->139A        0.70479
    131B ->134B        0.13951
    131B ->135B       -0.44908
    132B ->135B       -0.11107
 
 Excited State  11:  3.041-A      3.5053 eV  353.70 nm  f=0.0008  <S**2>=2.062
    133A ->135A       -0.13628
    133A ->137A       -0.18755
    126B ->133B        0.12003
    128B ->133B        0.65009
    129B ->133B       -0.64225
    130B ->133B        0.14105
    132B ->133B        0.15595
 
 Excited State  12:  3.092-A      3.5260 eV  351.63 nm  f=0.0036  <S**2>=2.140
    133A ->135A        0.81254
    133A ->137A        0.40453
    128B ->133B        0.32979
    130B ->133B        0.12892
 
 Excited State  13:  4.003-A      3.6162 eV  342.86 nm  f=0.0011  <S**2>=3.755
    129A ->137A        0.12427
    130A ->136A       -0.13177
    132A ->135A       -0.22027
    132A ->137A        0.54902
    128B ->133B        0.12854
    129B ->133B        0.14350
    130B ->136B        0.13108
    132B ->134B        0.46626
    132B ->135B        0.21628
    132B ->137B       -0.44415
 
 Excited State  14:  3.115-A      3.6672 eV  338.09 nm  f=0.0055  <S**2>=2.177
    132A ->137A       -0.20441
    133A ->135A       -0.25591
    133A ->137A       -0.15780
    128B ->133B        0.50696
    129B ->133B        0.66350
    130B ->133B        0.25869
    131B ->133B       -0.11272
 
 Excited State  15:  3.999-A      3.7286 eV  332.52 nm  f=0.0012  <S**2>=3.747
    123A ->135A        0.20625
    124A ->135A       -0.10864
    130A ->136A        0.42563
    132A ->137A        0.42104
    122B ->134B       -0.19463
    128B ->136B        0.12924
    130B ->136B       -0.41282
    132B ->134B       -0.40050
    132B ->135B       -0.11066
    132B ->137B       -0.21772
 
 Excited State  16:  3.665-A      3.8287 eV  323.83 nm  f=0.0070  <S**2>=3.109
    123A ->135A        0.13174
    130A ->136A        0.35732
    132A ->135A        0.14932
    132A ->137A       -0.25578
    122B ->134B       -0.11960
    127B ->133B       -0.18724
    128B ->136B        0.10744
    130B ->136B       -0.33645
    132B ->134B        0.65708
    132B ->135B        0.22764
 
 Excited State  17:  3.080-A      3.8445 eV  322.50 nm  f=0.0240  <S**2>=2.121
    127B ->133B        0.91350
    128B ->135B       -0.10101
    132B ->134B        0.11408
 
 Excited State  18:  3.112-A      3.9212 eV  316.19 nm  f=0.0139  <S**2>=2.171
    133A ->136A        0.83035
    133A ->138A        0.16929
    126B ->133B       -0.42327
    130B ->133B        0.18934
 
 Excited State  19:  3.083-A      3.9495 eV  313.92 nm  f=0.0373  <S**2>=2.127
    131A ->137A        0.12333
    133A ->136A        0.51948
    133A ->137A        0.10274
    121B ->133B       -0.13368
    122B ->133B        0.11075
    126B ->133B        0.69913
    130B ->133B       -0.34997
 
 Excited State  20:  4.020-A      4.0251 eV  308.03 nm  f=0.0021  <S**2>=3.790
    130A ->135A       -0.10621
    131A ->135A       -0.19153
    131A ->137A        0.47681
    132A ->137A        0.15172
    132A ->138A        0.21842
    130B ->133B        0.13344
    130B ->134B        0.11809
    131B ->134B        0.35170
    131B ->135B        0.11552
    131B ->137B       -0.47014
    132B ->136B       -0.10873
    132B ->137B        0.11983
    132B ->138B       -0.28553
 
 Excited State  21:  3.873-A      4.0591 eV  305.45 nm  f=0.0020  <S**2>=3.499
    130A ->135A       -0.23532
    131A ->137A        0.16209
    131A ->138A        0.10858
    132A ->135A       -0.26640
    132A ->138A       -0.29610
    132A ->139A       -0.12310
    134A ->138A       -0.10099
    134A ->140A        0.15738
    134A ->141A        0.12826
    130B ->133B        0.23664
    130B ->134B        0.20695
    131B ->134B        0.17245
    131B ->137B       -0.16525
    131B ->138B       -0.14064
    132B ->136B        0.25269
    132B ->138B        0.51002
    132B ->139B        0.13611
    132B ->140B        0.11816
 
 Excited State  22:  3.749-A      4.0959 eV  302.70 nm  f=0.0052  <S**2>=3.265
    130A ->135A       -0.43165
    131A ->137A       -0.22394
    132A ->137A       -0.10875
    132A ->138A        0.11725
    134A ->140A       -0.10009
    126B ->133B        0.30782
    128B ->133B       -0.22144
    128B ->134B       -0.11469
    130B ->133B        0.45595
    130B ->134B        0.37126
    130B ->135B        0.10675
    131B ->137B        0.23516
    132B ->138B       -0.22239
 
 Excited State  23:  3.406-A      4.1140 eV  301.37 nm  f=0.0032  <S**2>=2.649
    131A ->137A       -0.20130
    132A ->135A       -0.33611
    132A ->137A        0.31660
    125B ->133B        0.17178
    131B ->134B       -0.13330
    131B ->137B        0.12038
    132B ->134B        0.15059
    132B ->136B       -0.31554
    132B ->137B        0.67373
 
 Excited State  24:  3.400-A      4.1908 eV  295.85 nm  f=0.0038  <S**2>=2.639
    130A ->135A       -0.17538
    134A ->140A       -0.19325
    134A ->141A       -0.19180
    125B ->133B        0.48883
    126B ->133B       -0.15439
    128B ->133B        0.13655
    130B ->133B       -0.29744
    130B ->134B        0.13916
    132B ->136B        0.65112
    132B ->139B       -0.13104
 
 Excited State  25:  3.203-A      4.2106 eV  294.46 nm  f=0.0020  <S**2>=2.315
    130A ->135A       -0.10458
    132A ->135A        0.13112
    134A ->140A        0.57498
    134A ->141A        0.19704
    134A ->142A        0.11506
    125B ->133B        0.57695
    130B ->134B        0.10608
    131B ->134B        0.11273
    132B ->136B       -0.34689
    132B ->137B       -0.15316
 
 Excited State  26:  3.276-A      4.2209 eV  293.74 nm  f=0.0020  <S**2>=2.434
    130A ->135A        0.10963
    131A ->137A        0.23381
    132A ->137A       -0.11518
    132A ->138A       -0.10838
    133A ->138A       -0.21380
    134A ->140A       -0.45211
    134A ->141A       -0.19973
    134A ->142A       -0.11301
    125B ->133B        0.46177
    130B ->133B        0.27314
    131B ->134B       -0.30430
    131B ->135B       -0.12267
    131B ->138B       -0.10315
    132B ->136B       -0.24112
    132B ->137B       -0.21144
 
 Excited State  27:  3.444-A      4.2322 eV  292.95 nm  f=0.0018  <S**2>=2.715
    130A ->135A        0.29950
    132A ->135A        0.31933
    132A ->137A        0.21260
    134A ->140A        0.23235
    134A ->141A        0.19360
    125B ->133B        0.13518
    128B ->133B       -0.16621
    130B ->133B        0.45073
    130B ->134B       -0.27698
    131B ->134B       -0.20669
    132B ->136B        0.41193
    132B ->137B        0.19601
    132B ->139B       -0.11594
 
 Excited State  28:  3.465-A      4.2537 eV  291.47 nm  f=0.0041  <S**2>=2.751
    130A ->136A       -0.10936
    131A ->135A        0.10377
    131A ->137A       -0.30131
    132A ->135A        0.48147
    132A ->137A        0.18298
    133A ->138A       -0.23520
    134A ->140A       -0.31342
    130B ->136B        0.10014
    131B ->134B        0.52589
    131B ->135B        0.16897
    132B ->136B       -0.13510
    132B ->138B        0.18984
    132B ->139B        0.11988
 
 Excited State  29:  3.583-A      4.2800 eV  289.68 nm  f=0.0022  <S**2>=2.960
    130A ->135A       -0.24070
    131A ->135A       -0.12914
    131A ->137A        0.19462
    132A ->135A        0.58028
    132A ->137A        0.27348
    133A ->138A        0.14392
    134A ->141A       -0.11699
    130B ->133B       -0.18669
    130B ->134B        0.23331
    131B ->134B       -0.43409
    131B ->135B       -0.13230
    132B ->136B       -0.10305
    132B ->137B        0.10079
    132B ->138B        0.11285
    132B ->139B        0.16188
 
 Excited State  30:  3.154-A      4.2971 eV  288.53 nm  f=0.0249  <S**2>=2.238
    130A ->135A        0.12535
    132A ->138A       -0.10829
    133A ->138A        0.72781
    134A ->141A       -0.41520
    134A ->142A        0.12985
    125B ->133B        0.15551
    126B ->133B        0.20690
    130B ->133B        0.18223
    130B ->134B       -0.10985
    131B ->134B        0.17579
    132B ->139B        0.10646
 
 Excited State  31:  3.061-A      4.3248 eV  286.68 nm  f=0.0022  <S**2>=2.092
    133A ->138A        0.45016
    134A ->140A       -0.34089
    134A ->141A        0.73186
    134A ->142A       -0.19976
    134A ->144A       -0.10733
    125B ->133B        0.12035
 
 Excited State  32:  3.840-A      4.3496 eV  285.05 nm  f=0.0005  <S**2>=3.436
    131A ->138A       -0.13549
    132A ->139A       -0.24150
    133A ->138A       -0.11029
    125B ->133B        0.16256
    129B ->139B        0.10317
    131B ->138B        0.21204
    132B ->138B       -0.27325
    132B ->139B        0.80159
 
 Excited State  33:  3.098-A      4.4822 eV  276.62 nm  f=0.0052  <S**2>=2.149
    133A ->139A        0.63265
    120B ->133B        0.34562
    121B ->133B       -0.42857
    122B ->133B        0.34004
    123B ->133B       -0.11409
    126B ->133B       -0.12650
    131B ->139B        0.15978
 
 Excited State  34:  3.100-A      4.4917 eV  276.03 nm  f=0.0012  <S**2>=2.152
    131A ->137A        0.14132
    133A ->139A        0.66255
    134A ->142A        0.15626
    134A ->144A       -0.16440
    120B ->133B       -0.29307
    121B ->133B        0.35785
    122B ->133B       -0.29620
    123B ->133B        0.10747
    126B ->133B        0.15160
    129B ->135B       -0.10560
    131B ->134B        0.10510
    131B ->137B        0.18409
 
 Excited State  35:  3.459-A      4.5554 eV  272.17 nm  f=0.0069  <S**2>=2.741
    131A ->135A       -0.11908
    131A ->137A        0.30478
    131A ->138A        0.12896
    131A ->139A       -0.17856
    133A ->139A       -0.17216
    134A ->142A       -0.33375
    134A ->144A        0.26467
    131B ->134B        0.15231
    131B ->136B       -0.31173
    131B ->137B        0.47083
    131B ->138B       -0.16913
    131B ->139B        0.25464
    132B ->137B        0.11352
    132B ->138B       -0.19632
 
 Excited State  36:  3.117-A      4.5588 eV  271.97 nm  f=0.0044  <S**2>=2.179
    131A ->137A        0.16823
    133A ->138A       -0.11081
    133A ->139A       -0.15658
    134A ->140A       -0.12682
    134A ->142A        0.53445
    134A ->144A       -0.40789
    120B ->133B        0.15962
    121B ->133B       -0.19931
    122B ->133B        0.17792
    127B ->135B        0.12686
    129B ->134B        0.12422
    129B ->135B       -0.35396
    131B ->136B       -0.14994
    131B ->137B        0.29527
 
 Excited State  37:  3.641-A      4.5998 eV  269.54 nm  f=0.0001  <S**2>=3.064
    131A ->135A        0.31505
    131A ->137A       -0.16412
    131A ->138A        0.12652
    131A ->139A       -0.18763
    133A ->138A        0.10664
    133A ->139A       -0.15414
    134A ->142A        0.21082
    134A ->144A       -0.12514
    129B ->135B        0.18660
    131B ->136B       -0.27693
    131B ->137B       -0.31922
    131B ->138B       -0.33438
    131B ->139B        0.44633
    132B ->138B       -0.20938
 
 Excited State  38:  3.693-A      4.6502 eV  266.62 nm  f=0.0004  <S**2>=3.159
    131A ->139A       -0.16243
    133A ->139A       -0.10684
    131B ->136B        0.82054
    131B ->137B        0.10068
    131B ->139B        0.39590
 
 Excited State  39:  3.572-A      4.6612 eV  265.99 nm  f=0.0017  <S**2>=2.939
    132A ->136A        0.94732
    132A ->137A        0.12339
    129B ->135B       -0.12281
 
 Excited State  40:  3.541-A      4.7049 eV  263.52 nm  f=0.0310  <S**2>=2.885
    123A ->135A        0.25650
    124A ->135A       -0.10916
    129A ->135A        0.14462
    130A ->136A       -0.19282
    131A ->135A       -0.31742
    131A ->137A       -0.10307
    132A ->136A        0.18659
    134A ->142A        0.26014
    134A ->144A       -0.11529
    121B ->134B       -0.15176
    122B ->134B       -0.16484
    126B ->134B       -0.12562
    128B ->134B        0.19566
    128B ->135B       -0.14297
    129B ->134B       -0.37253
    129B ->135B        0.42432
    130B ->136B        0.19432
    131B ->136B       -0.16412
 
 Excited State  41:  3.421-A      4.7378 eV  261.69 nm  f=0.0591  <S**2>=2.677
    123A ->135A       -0.17606
    129A ->135A       -0.12610
    130A ->136A        0.12665
    131A ->135A        0.10733
    131A ->137A        0.18931
    134A ->142A        0.20299
    121B ->134B        0.15945
    122B ->133B        0.10220
    122B ->134B        0.12053
    126B ->134B        0.20546
    128B ->134B       -0.24912
    129B ->135B        0.59297
    130B ->135B        0.14489
    130B ->136B       -0.12610
    131B ->136B        0.17758
    131B ->137B        0.26007
    131B ->139B       -0.23666
 
 Excited State  42:  3.128-A      4.7704 eV  259.90 nm  f=0.0086  <S**2>=2.196
    131A ->135A       -0.19401
    134A ->140A       -0.13478
    134A ->141A        0.11170
    134A ->142A        0.36760
    134A ->144A        0.44762
    134A ->145A       -0.12467
    134A ->146A       -0.10728
    127B ->135B       -0.21094
    128B ->134B       -0.17546
    128B ->135B        0.52086
    129B ->135B       -0.13086
    130B ->135B        0.19537
    131B ->138B        0.15208
 
 Excited State  43:  3.702-A      4.7778 eV  259.50 nm  f=0.0097  <S**2>=3.176
    125A ->135A        0.14825
    129A ->135A        0.15204
    131A ->135A        0.43000
    132A ->139A        0.14875
    134A ->142A        0.16741
    134A ->144A        0.21320
    121B ->134B       -0.10718
    126B ->134B       -0.33825
    128B ->134B        0.28368
    129B ->134B       -0.15100
    129B ->135B       -0.17607
    130B ->134B        0.16538
    131B ->136B        0.11817
    131B ->138B       -0.29976
    131B ->139B       -0.28915
    132B ->139B        0.13302
 
 Excited State  44:  3.571-A      4.7969 eV  258.47 nm  f=0.0059  <S**2>=2.937
    123A ->135A       -0.11823
    125A ->135A        0.12030
    131A ->135A        0.17262
    131A ->137A        0.16039
    131A ->138A       -0.10017
    132A ->139A       -0.22484
    134A ->142A        0.16837
    134A ->144A        0.12096
    122B ->134B        0.18201
    126B ->134B       -0.16142
    126B ->135B       -0.11054
    128B ->134B        0.23881
    128B ->135B       -0.21918
    129B ->135B        0.16365
    129B ->138B        0.10266
    130B ->134B        0.11745
    131B ->136B       -0.13293
    131B ->138B        0.51268
    131B ->139B        0.28369
    131B ->140B        0.10389
    132B ->138B        0.14434
    132B ->139B       -0.16001
 
 Excited State  45:  3.190-A      4.8183 eV  257.32 nm  f=0.0408  <S**2>=2.293
    131A ->135A       -0.13347
    134A ->140A       -0.11559
    134A ->142A        0.19278
    134A ->144A        0.55402
    134A ->146A       -0.11619
    126B ->134B        0.22920
    126B ->135B       -0.12564
    127B ->135B        0.26385
    128B ->135B       -0.49017
    129B ->134B        0.13213
    130B ->135B       -0.18748
    131B ->138B       -0.12613
 
 Excited State  46:  3.752-A      4.8835 eV  253.88 nm  f=0.0008  <S**2>=3.270
    123A ->135A        0.25646
    124A ->135A       -0.16859
    125A ->135A       -0.16094
    128A ->135A        0.11279
    130A ->136A       -0.15745
    131A ->135A        0.58342
    131A ->137A        0.20676
    122B ->133B       -0.13190
    122B ->134B       -0.28516
    126B ->134B        0.15689
    127B ->135B        0.29743
    128B ->134B       -0.20167
    129B ->134B       -0.11198
    130B ->136B        0.14492
    131B ->138B        0.18235
 
 Excited State  47:  3.133-A      4.8929 eV  253.40 nm  f=0.0031  <S**2>=2.204
    131A ->135A       -0.19867
    121B ->133B        0.12533
    126B ->135B       -0.14977
    127B ->134B       -0.29064
    127B ->135B        0.74693
    127B ->138B        0.10431
    128B ->135B        0.31274
    129B ->135B        0.11742
    130B ->135B        0.19503
 
 Excited State  48:  3.045-A      4.9909 eV  248.42 nm  f=0.0056  <S**2>=2.068
    124B ->133B        0.98246
 
 Excited State  49:  3.066-A      5.0080 eV  247.57 nm  f=0.0002  <S**2>=2.100
    134A ->143A        0.88442
    134A ->145A        0.27184
    134A ->146A       -0.24380
 
 Excited State  50:  3.229-A      5.0477 eV  245.63 nm  f=0.0058  <S**2>=2.356
    132A ->138A       -0.29078
    132A ->139A        0.40322
    134A ->143A        0.13664
    134A ->146A        0.16162
    119B ->133B        0.12138
    120B ->133B        0.35168
    123B ->133B        0.58385
    125B ->133B        0.11978
    126B ->135B        0.11031
    130B ->134B        0.12770
    131B ->138B        0.20043
    131B ->139B        0.11423
 
 Excited State  51:  3.329-A      5.0594 eV  245.06 nm  f=0.0055  <S**2>=2.521
    130A ->135A        0.19624
    131A ->136A        0.14197
    131A ->138A        0.12973
    132A ->138A        0.44720
    132A ->139A       -0.43900
    120B ->133B        0.10399
    123B ->133B        0.53967
    130B ->134B        0.18298
    131B ->138B       -0.19692
    131B ->139B       -0.14851
    132B ->138B        0.10053
 
 Excited State  52:  3.116-A      5.0827 eV  243.93 nm  f=0.0780  <S**2>=2.178
    123A ->136A       -0.14226
    129A ->135A       -0.12967
    130A ->135A        0.49688
    131A ->136A        0.23326
    134A ->143A        0.13185
    134A ->146A        0.10670
    121B ->133B        0.17052
    122B ->136B       -0.11313
    123B ->133B       -0.41094
    130B ->134B        0.54554
 
 Excited State  53:  3.098-A      5.0994 eV  243.13 nm  f=0.0244  <S**2>=2.149
    130A ->135A       -0.22518
    132A ->139A       -0.14336
    133A ->141A        0.10500
    134A ->142A        0.12770
    134A ->143A        0.27083
    134A ->146A        0.43688
    134A ->147A        0.25528
    134A ->150A        0.17011
    126B ->134B       -0.13779
    126B ->135B        0.42664
    130B ->134B       -0.15054
    130B ->135B       -0.38254
    131B ->139B       -0.10279
 
 Excited State  54:  3.146-A      5.1178 eV  242.26 nm  f=0.0190  <S**2>=2.224
    128A ->137A        0.10907
    129A ->135A        0.16501
    130A ->135A       -0.12991
    131A ->138A        0.13307
    132A ->138A        0.24373
    116B ->133B        0.14422
    119B ->133B        0.17470
    120B ->133B        0.53719
    121B ->133B        0.50289
    123B ->133B       -0.24424
    126B ->135B       -0.11273
    127B ->135B       -0.12393
    128B ->134B        0.13186
    130B ->134B       -0.12409
    130B ->135B        0.14951
 
 Excited State  55:  3.210-A      5.1506 eV  240.72 nm  f=0.0055  <S**2>=2.326
    134A ->143A        0.16158
    134A ->145A       -0.12833
    134A ->146A        0.43764
    134A ->147A        0.20046
    134A ->150A        0.14529
    120B ->133B       -0.12475
    121B ->133B       -0.25125
    122B ->133B       -0.13918
    126B ->134B        0.11378
    126B ->135B       -0.17874
    128B ->134B        0.15790
    128B ->135B       -0.12121
    129B ->134B        0.41973
    130B ->135B        0.50247
 
 Excited State  56:  3.397-A      5.1730 eV  239.67 nm  f=0.0080  <S**2>=2.635
    129A ->135A        0.14977
    134A ->146A       -0.17049
    134A ->147A       -0.10276
    121B ->133B       -0.12759
    122B ->133B       -0.21587
    127B ->134B       -0.10739
    128B ->134B        0.20894
    128B ->135B        0.28336
    129B ->134B        0.59361
    129B ->135B        0.27735
    130B ->134B        0.20510
    130B ->135B       -0.41896
 
 Excited State  57:  3.408-A      5.2118 eV  237.89 nm  f=0.0071  <S**2>=2.654
    129A ->135A        0.17916
    131A ->136A        0.73431
    131A ->138A        0.13070
    131A ->139A       -0.10003
    132A ->138A        0.12284
    132A ->139A        0.20432
    121B ->133B       -0.24446
    122B ->133B       -0.32152
    128B ->134B       -0.10552
    130B ->134B       -0.16570
    131B ->138B        0.12389
 
 Excited State  58:  3.216-A      5.2159 eV  237.70 nm  f=0.0068  <S**2>=2.335
    123A ->135A        0.13046
    129A ->135A        0.14792
    131A ->136A        0.37498
    134A ->146A       -0.17235
    120B ->133B       -0.22411
    121B ->133B        0.25249
    122B ->133B        0.58953
    122B ->134B       -0.11011
    123B ->133B        0.16509
    126B ->135B        0.23615
    129B ->134B        0.28738
    130B ->135B        0.18025
 
 Excited State  59:  3.095-A      5.2201 eV  237.51 nm  f=0.0207  <S**2>=2.145
    125A ->135A       -0.10073
    129A ->135A       -0.28801
    134A ->142A        0.10338
    134A ->143A       -0.14495
    134A ->144A        0.17624
    134A ->145A        0.61033
    134A ->149A        0.11999
    134A ->151A       -0.10840
    120B ->133B        0.10965
    122B ->133B       -0.18636
    126B ->134B       -0.17850
    126B ->135B        0.34671
    128B ->134B        0.24814
    130B ->135B        0.31538
 
 Excited State  60:  3.117-A      5.2430 eV  236.48 nm  f=0.0078  <S**2>=2.179
    129A ->135A        0.28261
    132A ->138A        0.15120
    132A ->139A        0.13479
    134A ->143A       -0.11587
    134A ->144A        0.14569
    134A ->145A        0.58345
    134A ->146A        0.29022
    120B ->133B       -0.11551
    122B ->133B        0.24173
    126B ->134B        0.15542
    126B ->135B       -0.29539
    128B ->134B       -0.19576
    130B ->135B       -0.14587
    132B ->138B        0.11058
 
 Excited State  61:  3.210-A      5.2599 eV  235.72 nm  f=0.0207  <S**2>=2.325
    125A ->135A        0.16799
    129A ->135A        0.38945
    131A ->138A       -0.12783
    131A ->139A        0.37100
    132A ->138A       -0.36316
    132A ->139A       -0.37190
    134A ->145A        0.14320
    120B ->133B        0.13096
    122B ->133B       -0.14798
    128B ->134B       -0.28082
    128B ->135B       -0.16276
    132B ->138B       -0.23473
    132B ->139B       -0.17143
 
 Excited State  62:  3.225-A      5.2821 eV  234.72 nm  f=0.0356  <S**2>=2.350
    125A ->135A        0.14902
    129A ->135A        0.37035
    130A ->135A        0.10688
    131A ->136A       -0.37965
    131A ->138A        0.10172
    131A ->139A       -0.28234
    132A ->138A        0.16652
    132A ->139A        0.18963
    134A ->145A       -0.11292
    134A ->146A       -0.19341
    126B ->135B        0.39542
    128B ->134B       -0.24443
    128B ->135B       -0.18835
    129B ->134B        0.12375
    130B ->135B        0.18000
 
 Excited State  63:  3.404-A      5.3321 eV  232.53 nm  f=0.0041  <S**2>=2.647
    125A ->135A       -0.11203
    129A ->137A       -0.41737
    132A ->137A        0.10225
    125B ->134B       -0.22798
    125B ->135B        0.71067
    126B ->134B        0.16090
    128B ->134B        0.20975
    128B ->137B       -0.13253
 
 Excited State  64:  3.679-A      5.3575 eV  231.42 nm  f=0.0025  <S**2>=3.134
    129A ->136A        0.11647
    129A ->137A       -0.19533
    120B ->136B       -0.11801
    121B ->136B       -0.16519
    125B ->134B        0.13263
    125B ->135B       -0.33511
    126B ->134B        0.11205
    126B ->136B       -0.44363
    128B ->134B        0.13913
    128B ->136B        0.47587
    129B ->134B       -0.10177
    129B ->136B       -0.41860
    130B ->136B        0.17135
 
 Excited State  65:  3.658-A      5.3731 eV  230.75 nm  f=0.0034  <S**2>=3.096
    129A ->137A        0.44848
    132A ->137A       -0.10741
    125B ->134B       -0.18599
    125B ->135B        0.41761
    126B ->134B       -0.23691
    126B ->135B       -0.18465
    126B ->136B       -0.28491
    128B ->134B       -0.24734
    128B ->135B       -0.14367
    128B ->136B        0.27996
    128B ->137B        0.13272
    129B ->134B        0.10207
    129B ->136B       -0.20690
    130B ->136B        0.14185
 
 Excited State  66:  3.138-A      5.4190 eV  228.80 nm  f=0.0035  <S**2>=2.212
    131A ->138A       -0.17966
    131A ->139A       -0.14516
    133A ->140A        0.78550
    133A ->141A        0.24633
    133A ->142A        0.14736
    134A ->142A        0.10118
    134A ->145A       -0.10564
    134A ->146A        0.17697
    134A ->147A       -0.22116
    134A ->148A        0.10979
    134A ->149A        0.11212
    134A ->150A       -0.10516
    134A ->151A       -0.10836
 
 Excited State  67:  3.119-A      5.4376 eV  228.01 nm  f=0.0059  <S**2>=2.182
    129A ->137A        0.11584
    133A ->140A        0.25940
    133A ->141A        0.33861
    134A ->145A        0.13852
    134A ->146A       -0.38212
    134A ->147A        0.60461
    134A ->149A       -0.23213
    134A ->150A        0.20319
    134A ->151A        0.23013
 
 Excited State  68:  3.527-A      5.4530 eV  227.37 nm  f=0.0112  <S**2>=2.859
    125A ->135A        0.13396
    128A ->135A       -0.14023
    128A ->137A        0.13250
    129A ->135A        0.22093
    129A ->137A        0.35334
    131A ->138A       -0.33622
    131A ->139A       -0.19901
    133A ->140A       -0.29648
    121B ->134B        0.10468
    126B ->134B        0.48286
    126B ->135B        0.12298
    128B ->134B        0.29776
    129B ->134B       -0.14919
 
 Excited State  69:  3.457-A      5.4810 eV  226.21 nm  f=0.0065  <S**2>=2.738
    125A ->135A        0.11167
    128A ->135A        0.15541
    128A ->137A       -0.12893
    128A ->138A        0.11113
    129A ->137A        0.30744
    131A ->138A        0.58421
    131A ->139A        0.33207
    131A ->140A        0.10078
    134A ->147A       -0.13342
    126B ->134B        0.26122
    128B ->134B        0.18517
    129B ->136B       -0.14424
    131B ->138B        0.18654
 
 Excited State  70:  3.471-A      5.5116 eV  224.95 nm  f=0.0012  <S**2>=2.762
    123A ->136A       -0.12029
    134A ->147A        0.18400
    134A ->148A        0.59349
    134A ->149A        0.10483
    122B ->136B        0.10154
    126B ->134B        0.12648
    127B ->136B       -0.11711
    128B ->136B        0.32254
    129B ->136B        0.53903
    130B ->136B        0.19800
 
 Excited State  71:  3.313-A      5.5233 eV  224.48 nm  f=0.0054  <S**2>=2.494
    123A ->136A        0.11903
    133A ->141A       -0.10704
    134A ->145A       -0.15598
    134A ->146A       -0.11456
    134A ->147A        0.28350
    134A ->148A        0.45504
    134A ->149A        0.47441
    134A ->150A        0.12922
    134A ->151A       -0.14672
    128B ->136B       -0.23819
    129B ->136B       -0.41559
    130B ->136B       -0.15339
 
 Excited State  72:  3.171-A      5.5418 eV  223.72 nm  f=0.0039  <S**2>=2.264
    128A ->135A       -0.15089
    128A ->137A        0.10322
    133A ->140A       -0.18634
    133A ->141A        0.35355
    133A ->142A       -0.14398
    134A ->146A        0.15281
    134A ->147A       -0.19094
    134A ->148A        0.56711
    134A ->149A       -0.45450
    134A ->150A       -0.21544
    134A ->151A        0.13079
    128B ->136B       -0.11055
    129B ->136B       -0.21048
 
 Excited State  73:  3.561-A      5.5495 eV  223.41 nm  f=0.0068  <S**2>=2.920
    127A ->137A        0.16013
    128A ->135A        0.57867
    128A ->137A       -0.39728
    131A ->137A        0.13159
    131A ->138A       -0.24435
    131A ->139A       -0.20439
    133A ->141A       -0.18003
    134A ->146A        0.13162
    134A ->149A       -0.33712
    134A ->151A        0.10546
    125B ->137B       -0.10205
    129B ->137B        0.14660
 
 Excited State  74:  3.232-A      5.5745 eV  222.41 nm  f=0.0381  <S**2>=2.362
    128A ->135A        0.34372
    128A ->137A       -0.10582
    133A ->140A       -0.24139
    133A ->141A        0.69267
    133A ->142A       -0.12152
    133A ->144A       -0.15573
    134A ->147A       -0.22622
    134A ->148A       -0.11238
    134A ->149A        0.29832
    134A ->150A        0.10643
    129B ->136B        0.10712
 
 Excited State  75:  3.689-A      5.6462 eV  219.59 nm  f=0.0013  <S**2>=3.151
    127A ->135A        0.28323
    127A ->137A       -0.29960
    128A ->135A        0.39368
    128A ->137A        0.19457
    125B ->134B       -0.29879
    125B ->137B        0.14023
    127B ->134B        0.58696
    127B ->135B        0.23038
    127B ->137B       -0.10093
 
 Excited State  76:  3.208-A      5.6610 eV  219.01 nm  f=0.0034  <S**2>=2.323
    123A ->136A        0.15334
    125A ->136A        0.11317
    129A ->136A        0.36264
    134A ->147A       -0.34507
    134A ->148A        0.13515
    134A ->150A        0.71978
    134A ->151A        0.16653
    134A ->154A        0.10174
    122B ->136B       -0.12305
 
 Excited State  77:  3.589-A      5.6841 eV  218.12 nm  f=0.0005  <S**2>=2.971
    123A ->136A        0.32333
    124A ->136A       -0.12311
    128A ->136A        0.16184
    129A ->136A        0.54695
    130A ->136A       -0.12138
    134A ->147A        0.17923
    134A ->150A       -0.40471
    121B ->136B       -0.14031
    122B ->136B       -0.30359
    123B ->136B       -0.10296
    125B ->136B        0.11719
    126B ->136B        0.11673
    128B ->136B        0.14130
    129B ->136B        0.22951
 
 Excited State  78:  3.698-A      5.6983 eV  217.58 nm  f=0.0073  <S**2>=3.169
    127A ->135A       -0.22090
    127A ->137A        0.19249
    128A ->135A       -0.36882
    128A ->137A       -0.34166
    121B ->135B       -0.16149
    122B ->135B        0.10075
    125B ->137B       -0.10886
    126B ->135B       -0.12868
    127B ->134B        0.63997
    127B ->135B        0.19496
    128B ->137B        0.10328
 
 Excited State  79:  3.647-A      5.7174 eV  216.85 nm  f=0.0010  <S**2>=3.076
    131A ->139A       -0.16992
    121B ->135B       -0.18085
    122B ->135B        0.13259
    129B ->137B       -0.11199
    132B ->138B       -0.25397
    132B ->140B        0.79178
    132B ->141B        0.22650
 
 Excited State  80:  3.717-A      5.7339 eV  216.23 nm  f=0.0063  <S**2>=3.205
    120A ->136A        0.10163
    121A ->136A       -0.10141
    123A ->136A       -0.22747
    124A ->136A        0.21294
    125A ->136A        0.38817
    126A ->136A       -0.13266
    128A ->136A       -0.17039
    129A ->136A        0.48143
    130A ->136A       -0.13644
    119B ->136B       -0.10698
    121B ->136B        0.13170
    122B ->136B        0.35345
    123B ->136B        0.10620
    125B ->136B       -0.15599
    126B ->136B       -0.22473
    128B ->136B       -0.26141
    130B ->136B       -0.16696
 
 Excited State  81:  3.105-A      5.7394 eV  216.02 nm  f=0.0023  <S**2>=2.160
    133A ->142A       -0.10432
    119B ->133B        0.82445
    120B ->133B       -0.23316
    121B ->135B       -0.21595
    122B ->135B        0.14183
 
 Excited State  82:  3.339-A      5.7539 eV  215.48 nm  f=0.0056  <S**2>=2.537
    123A ->135A        0.11041
    125A ->135A        0.22807
    125A ->137A       -0.16062
    127A ->135A       -0.28784
    127A ->137A        0.13617
    129A ->135A       -0.17060
    130A ->137A        0.21759
    133A ->142A        0.15696
    133A ->144A       -0.17014
    119B ->133B        0.35604
    120B ->133B       -0.10730
    121B ->134B       -0.13481
    121B ->135B        0.42808
    122B ->134B        0.14257
    122B ->135B       -0.26180
    123B ->135B        0.12704
    132B ->140B        0.20609
 
 Excited State  83:  3.729-A      5.7807 eV  214.48 nm  f=0.0314  <S**2>=3.227
    125A ->135A       -0.15978
    127A ->135A        0.47821
    127A ->137A       -0.24033
    128A ->135A       -0.24846
    128A ->136A        0.11205
    128A ->137A       -0.40593
    129A ->135A        0.17079
    129A ->137A        0.14916
    133A ->142A        0.22336
    119B ->133B        0.16778
    125B ->134B       -0.13737
    127B ->134B       -0.15634
    129B ->137B        0.29928
 
 Excited State  84:  3.382-A      5.7942 eV  213.98 nm  f=0.0514  <S**2>=2.610
    125A ->135A       -0.35440
    126A ->135A        0.13374
    127A ->135A       -0.11424
    127A ->137A        0.10911
    128A ->137A        0.10789
    129A ->135A        0.21338
    129A ->136A        0.11163
    130A ->136A        0.40913
    130A ->137A       -0.39301
    119B ->133B        0.11638
    121B ->135B        0.10421
    122B ->134B        0.18095
    126B ->136B       -0.15614
    128B ->136B       -0.34392
    129B ->137B       -0.11904
    130B ->136B        0.30972
    132B ->140B        0.10187
 
 Excited State  85:  3.360-A      5.8265 eV  212.79 nm  f=0.0119  <S**2>=2.572
    123A ->135A        0.21202
    125A ->135A        0.29093
    126A ->135A       -0.14284
    127A ->137A       -0.15367
    128A ->135A       -0.10994
    128A ->137A       -0.13191
    129A ->135A       -0.24237
    129A ->137A       -0.10277
    130A ->136A        0.11400
    130A ->137A       -0.18432
    133A ->142A       -0.14417
    133A ->144A        0.14574
    134A ->149A        0.30546
    134A ->150A       -0.11404
    134A ->151A        0.54507
    125B ->134B       -0.26167
    126B ->134B        0.14583
    128B ->136B       -0.12100
 
 Excited State  86:  3.494-A      5.8299 eV  212.67 nm  f=0.0019  <S**2>=2.803
    123A ->135A       -0.10745
    125A ->135A       -0.20543
    129A ->135A        0.17717
    129A ->137A        0.11652
    130A ->137A        0.63540
    133A ->142A       -0.27453
    133A ->144A        0.18784
    134A ->149A        0.19024
    134A ->151A        0.33027
    121B ->135B        0.10295
    126B ->136B       -0.16708
    128B ->136B       -0.12963
    128B ->137B        0.11375
    129B ->137B       -0.10042
 
 Excited State  87:  3.337-A      5.8411 eV  212.26 nm  f=0.0105  <S**2>=2.534
    125A ->135A       -0.11525
    127A ->135A        0.12628
    129A ->135A        0.12329
    130A ->137A       -0.28801
    133A ->142A        0.17712
    133A ->144A       -0.14212
    134A ->149A        0.18811
    134A ->150A       -0.11461
    134A ->151A        0.51021
    121B ->135B        0.15994
    122B ->135B       -0.13775
    125B ->134B        0.29898
    125B ->135B        0.11263
    126B ->134B       -0.12705
    126B ->136B        0.33940
    128B ->136B        0.29404
    129B ->136B       -0.13727
 
 Excited State  88:  3.397-A      5.8545 eV  211.78 nm  f=0.0056  <S**2>=2.635
    128A ->137A        0.16237
    130A ->137A        0.14763
    133A ->142A        0.49965
    133A ->144A       -0.32961
    134A ->151A        0.24718
    121B ->135B       -0.17093
    121B ->136B       -0.11680
    122B ->135B        0.12974
    125B ->134B        0.18740
    126B ->136B       -0.38235
    128B ->136B       -0.27343
    128B ->137B       -0.10775
    129B ->136B        0.14671
    132B ->140B       -0.10116
 
 Excited State  89:  3.327-A      5.8609 eV  211.54 nm  f=0.0066  <S**2>=2.518
    125A ->135A        0.19981
    127A ->135A        0.35626
    130A ->137A       -0.29708
    133A ->142A       -0.23954
    133A ->144A        0.14209
    134A ->151A       -0.14399
    121B ->135B        0.11287
    125B ->134B        0.52372
    125B ->135B        0.20259
    126B ->136B       -0.30217
    127B ->134B        0.11909
    128B ->136B       -0.15341
    129B ->136B        0.13270
    130B ->136B       -0.12382
 
 Excited State  90:  3.387-A      5.8911 eV  210.46 nm  f=0.0812  <S**2>=2.618
    123A ->135A        0.17235
    125A ->135A        0.10494
    127A ->137A       -0.15373
    129A ->136A        0.17816
    130A ->136A        0.36732
    130A ->137A        0.28318
    121B ->134B        0.15081
    122B ->135B        0.13233
    125B ->134B        0.38294
    125B ->135B        0.11968
    126B ->136B        0.22816
    128B ->137B       -0.22282
    129B ->137B        0.27363
    130B ->136B        0.36920
    132B ->141B        0.11582
 
 Excited State  91:  3.140-A      5.9103 eV  209.78 nm  f=0.0028  <S**2>=2.214
    127A ->135A       -0.12584
    134A ->152A       -0.12893
    116B ->133B       -0.48804
    117B ->133B        0.25405
    118B ->133B        0.69316
    119B ->133B        0.10116
    120B ->133B        0.17145
    125B ->134B        0.13566
    129B ->137B       -0.12083
    132B ->141B       -0.12563
 
 Excited State  92:  3.346-A      5.9356 eV  208.88 nm  f=0.0670  <S**2>=2.549
    123A ->135A       -0.12905
    125A ->135A       -0.16443
    127A ->135A       -0.28815
    127A ->137A       -0.17439
    129A ->137A        0.20160
    130A ->136A       -0.19199
    130A ->137A       -0.10368
    133A ->142A       -0.15507
    118B ->133B        0.12693
    126B ->136B       -0.10947
    128B ->137B       -0.35591
    128B ->138B       -0.11600
    129B ->137B        0.40353
    129B ->138B        0.13782
    130B ->136B       -0.19520
    132B ->141B        0.35801
    132B ->142B       -0.13370
 
 Excited State  93:  3.443-A      5.9411 eV  208.69 nm  f=0.0023  <S**2>=2.714
    127A ->135A        0.34731
    127A ->137A        0.29840
    128A ->136A       -0.11087
    133A ->144A       -0.10126
    134A ->152A        0.50898
    134A ->153A        0.15449
    118B ->133B        0.42069
    125B ->134B       -0.10106
    127B ->137B        0.11915
    128B ->137B       -0.11103
    132B ->140B       -0.12920
    132B ->141B        0.27253
    132B ->142B       -0.10783
 
 Excited State  94:  3.381-A      5.9519 eV  208.31 nm  f=0.0016  <S**2>=2.608
    127A ->135A       -0.26917
    127A ->137A       -0.30257
    134A ->152A        0.70381
    134A ->153A        0.23447
    134A ->156A        0.10908
    125B ->134B        0.11513
    132B ->140B        0.10055
    132B ->141B       -0.29974
    132B ->142B        0.10842
 
 Excited State  95:  3.148-A      5.9676 eV  207.76 nm  f=0.0002  <S**2>=2.227
    127A ->135A       -0.11076
    127A ->137A       -0.16351
    134A ->152A       -0.13315
    116B ->133B        0.74542
    117B ->133B       -0.12423
    118B ->133B        0.49221
    120B ->133B       -0.12433
    129B ->137B        0.11922
    132B ->141B       -0.16778
 
 Excited State  96:  3.636-A      6.0062 eV  206.43 nm  f=0.0118  <S**2>=3.055
    127A ->135A       -0.12826
    127A ->137A       -0.22068
    133A ->144A        0.17802
    125B ->134B        0.10063
    125B ->137B        0.13079
    127B ->137B       -0.17752
    127B ->138B       -0.11295
    128B ->137B        0.33891
    129B ->137B       -0.25872
    129B ->138B       -0.19044
    131B ->140B       -0.15905
    132B ->140B       -0.17987
    132B ->141B        0.55627
    132B ->142B       -0.17468
 
 Excited State  97:  3.472-A      6.0277 eV  205.69 nm  f=0.0228  <S**2>=2.763
    121A ->137A       -0.11984
    125A ->137A       -0.13517
    127A ->137A        0.17075
    128A ->136A       -0.11650
    128A ->137A        0.15274
    128A ->138A        0.10551
    129A ->138A        0.19181
    131A ->138A        0.11079
    131A ->139A       -0.18185
    132A ->138A       -0.19544
    132A ->139A       -0.10697
    132A ->140A        0.36255
    132A ->141A        0.14407
    133A ->144A        0.11763
    116B ->133B       -0.11611
    117B ->133B       -0.35729
    120B ->135B        0.21018
    127B ->136B       -0.11390
    129B ->137B        0.23190
    129B ->138B       -0.17406
    131B ->138B        0.12827
    131B ->139B       -0.14542
    131B ->140B       -0.18337
    132B ->140B        0.12946
    132B ->141B       -0.15833
 
 Excited State  98:  3.115-A      6.0351 eV  205.44 nm  f=0.0018  <S**2>=2.175
    132A ->140A        0.15336
    116B ->133B        0.22105
    117B ->133B        0.86813
    118B ->133B       -0.15706
    129B ->137B        0.10717
 
 Excited State  99:  3.463-A      6.0485 eV  204.98 nm  f=0.0054  <S**2>=2.748
    128A ->136A        0.70364
    129A ->138A        0.11374
    132A ->138A       -0.11355
    132A ->140A        0.20597
    133A ->142A       -0.16424
    133A ->144A       -0.21681
    134A ->153A        0.16226
    122B ->136B        0.11849
    125B ->136B       -0.11486
    127B ->136B        0.19887
    128B ->137B       -0.23341
    129B ->137B       -0.18156
    130B ->137B       -0.11772
 
 Excited State 100:  3.154-A      6.0567 eV  204.70 nm  f=0.0111  <S**2>=2.238
    127A ->137A        0.11091
    128A ->137A        0.12949
    133A ->142A        0.14575
    133A ->144A        0.18860
    134A ->152A       -0.23440
    134A ->153A        0.73409
    134A ->154A        0.27589
    134A ->155A        0.21373
    134A ->156A        0.15705
    127B ->136B       -0.19179
 SavETr:  write IOETrn=   770 NScale= 10 NData=  16 NLR=1 NState=  100 LETran=    1810.

 **********************************************************************

            Population analysis using the SCF Density.

 **********************************************************************

 Orbital symmetries:
 Alpha Orbitals:
       Occupied  (A) (A) (A) (A) (A) (A) (A) (A) (A) (A) (A) (A)
                 (A) (A) (A) (A) (A) (A) (A) (A) (A) (A) (A) (A)
                 (A) (A) (A) (A) (A) (A) (A) (A) (A) (A) (A) (A)
                 (A) (A) (A) (A) (A) (A) (A) (A) (A) (A) (A) (A)
                 (A) (A) (A) (A) (A) (A) (A) (A) (A) (A) (A) (A)
                 (A) (A) (A) (A) (A) (A) (A) (A) (A) (A) (A) (A)
                 (A) (A) (A) (A) (A) (A) (A) (A) (A) (A) (A) (A)
                 (A) (A) (A) (A) (A) (A) (A) (A) (A) (A) (A) (A)
                 (A) (A) (A) (A) (A) (A) (A) (A) (A) (A) (A) (A)
                 (A) (A) (A) (A) (A) (A) (A) (A) (A) (A) (A) (A)
                 (A) (A) (A) (A) (A) (A) (A) (A) (A) (A) (A) (A)
                 (A) (A)
       Virtual   (A) (A) (A) (A) (A) (A) (A) (A) (A) (A) (A) (A)
                 (A) (A) (A) (A) (A) (A) (A) (A) (A) (A) (A) (A)
                 (A) (A) (A) (A) (A) (A) (A) (A) (A) (A) (A) (A)
                 (A) (A) (A) (A) (A) (A) (A) (A) (A) (A) (A) (A)
                 (A) (A) (A) (A) (A) (A) (A) (A) (A) (A) (A) (A)
                 (A) (A) (A) (A) (A) (A) (A) (A) (A) (A) (A) (A)
                 (A) (A) (A) (A) (A) (A) (A) (A) (A) (A) (A) (A)
                 (A) (A) (A) (A) (A) (A) (A) (A) (A) (A) (A) (A)
                 (A) (A) (A) (A) (A) (A) (A) (A) (A) (A) (A) (A)
                 (A) (A) (A) (A) (A) (A) (A) (A) (A) (A) (A) (A)
                 (A) (A) (A) (A) (A) (A) (A) (A) (A) (A) (A) (A)
                 (A) (A) (A) (A) (A) (A) (A) (A) (A) (A) (A) (A)
                 (A) (A) (A) (A) (A) (A) (A) (A) (A) (A) (A) (A)
                 (A) (A) (A) (A) (A) (A) (A) (A) (A) (A) (A) (A)
                 (A) (A) (A) (A) (A) (A) (A) (A) (A) (A) (A) (A)
                 (A) (A) (A) (A) (A) (A) (A) (A) (A) (A) (A) (A)
                 (A) (A) (A) (A) (A) (A) (A) (A) (A) (A) (A) (A)
                 (A) (A) (A) (A) (A) (A) (A) (A) (A) (A) (A) (A)
                 (A) (A) (A) (A) (A) (A) (A) (A) (A) (A) (A) (A)
                 (A) (A) (A) (A) (A) (A) (A) (A) (A) (A) (A) (A)
                 (A) (A) (A) (A) (A) (A) (A) (A) (A) (A) (A) (A)
                 (A) (A) (A) (A) (A) (A) (A) (A) (A) (A) (A) (A)
                 (A) (A) (A) (A) (A) (A) (A) (A) (A) (A) (A) (A)
                 (A) (A) (A) (A) (A) (A) (A) (A) (A) (A) (A) (A)
                 (A) (A) (A) (A) (A) (A) (A) (A) (A) (A) (A) (A)
                 (A) (A) (A) (A) (A) (A) (A) (A) (A) (A) (A) (A)
                 (A) (A) (A) (A) (A) (A) (A) (A) (A) (A) (A) (A)
                 (A) (A) (A) (A) (A) (A) (A) (A) (A) (A) (A) (A)
                 (A) (A) (A) (A) (A) (A) (A) (A) (A) (A) (A) (A)
                 (A) (A) (A) (A) (A) (A) (A) (A) (A) (A) (A) (A)
                 (A) (A) (A) (A) (A) (A) (A) (A) (A) (A) (A) (A)
                 (A) (A) (A) (A) (A) (A) (A) (A) (A) (A) (A) (A)
                 (A) (A) (A) (A) (A) (A) (A) (A) (A) (A) (A) (A)
                 (A) (A) (A) (A) (A) (A) (A) (A) (A) (A) (A) (A)
                 (A) (A) (A) (A) (A) (A) (A) (A) (A) (A) (A) (A)
                 (A) (A) (A) (A) (A) (A) (A) (A) (A) (A) (A) (A)
                 (A) (A) (A) (A) (A) (A) (A) (A) (A) (A) (A) (A)
                 (A) (A) (A) (A) (A) (A) (A) (A) (A) (A) (A) (A)
                 (A) (A) (A) (A) (A) (A) (A) (A) (A) (A) (A) (A)
                 (A) (A) (A) (A) (A) (A) (A) (A) (A) (A) (A) (A)
                 (A) (A) (A) (A) (A) (A) (A) (A) (A) (A) (A) (A)
                 (A) (A) (A) (A) (A) (A) (A) (A) (A) (A) (A) (A)
                 (A) (A) (A) (A) (A) (A) (A) (A) (A) (A) (A) (A)
                 (A) (A) (A) (A) (A) (A) (A) (A) (A) (A) (A) (A)
                 (A) (A) (A) (A) (A) (A) (A) (A) (A) (A) (A) (A)
                 (A) (A) (A) (A) (A) (A) (A) (A) (A) (A)
 Beta  Orbitals:
       Occupied  (A) (A) (A) (A) (A) (A) (A) (A) (A) (A) (A) (A)
                 (A) (A) (A) (A) (A) (A) (A) (A) (A) (A) (A) (A)
                 (A) (A) (A) (A) (A) (A) (A) (A) (A) (A) (A) (A)
                 (A) (A) (A) (A) (A) (A) (A) (A) (A) (A) (A) (A)
                 (A) (A) (A) (A) (A) (A) (A) (A) (A) (A) (A) (A)
                 (A) (A) (A) (A) (A) (A) (A) (A) (A) (A) (A) (A)
                 (A) (A) (A) (A) (A) (A) (A) (A) (A) (A) (A) (A)
                 (A) (A) (A) (A) (A) (A) (A) (A) (A) (A) (A) (A)
                 (A) (A) (A) (A) (A) (A) (A) (A) (A) (A) (A) (A)
                 (A) (A) (A) (A) (A) (A) (A) (A) (A) (A) (A) (A)
                 (A) (A) (A) (A) (A) (A) (A) (A) (A) (A) (A) (A)
       Virtual   (A) (A) (A) (A) (A) (A) (A) (A) (A) (A) (A) (A)
                 (A) (A) (A) (A) (A) (A) (A) (A) (A) (A) (A) (A)
                 (A) (A) (A) (A) (A) (A) (A) (A) (A) (A) (A) (A)
                 (A) (A) (A) (A) (A) (A) (A) (A) (A) (A) (A) (A)
                 (A) (A) (A) (A) (A) (A) (A) (A) (A) (A) (A) (A)
                 (A) (A) (A) (A) (A) (A) (A) (A) (A) (A) (A) (A)
                 (A) (A) (A) (A) (A) (A) (A) (A) (A) (A) (A) (A)
                 (A) (A) (A) (A) (A) (A) (A) (A) (A) (A) (A) (A)
                 (A) (A) (A) (A) (A) (A) (A) (A) (A) (A) (A) (A)
                 (A) (A) (A) (A) (A) (A) (A) (A) (A) (A) (A) (A)
                 (A) (A) (A) (A) (A) (A) (A) (A) (A) (A) (A) (A)
                 (A) (A) (A) (A) (A) (A) (A) (A) (A) (A) (A) (A)
                 (A) (A) (A) (A) (A) (A) (A) (A) (A) (A) (A) (A)
                 (A) (A) (A) (A) (A) (A) (A) (A) (A) (A) (A) (A)
                 (A) (A) (A) (A) (A) (A) (A) (A) (A) (A) (A) (A)
                 (A) (A) (A) (A) (A) (A) (A) (A) (A) (A) (A) (A)
                 (A) (A) (A) (A) (A) (A) (A) (A) (A) (A) (A) (A)
                 (A) (A) (A) (A) (A) (A) (A) (A) (A) (A) (A) (A)
                 (A) (A) (A) (A) (A) (A) (A) (A) (A) (A) (A) (A)
                 (A) (A) (A) (A) (A) (A) (A) (A) (A) (A) (A) (A)
                 (A) (A) (A) (A) (A) (A) (A) (A) (A) (A) (A) (A)
                 (A) (A) (A) (A) (A) (A) (A) (A) (A) (A) (A) (A)
                 (A) (A) (A) (A) (A) (A) (A) (A) (A) (A) (A) (A)
                 (A) (A) (A) (A) (A) (A) (A) (A) (A) (A) (A) (A)
                 (A) (A) (A) (A) (A) (A) (A) (A) (A) (A) (A) (A)
                 (A) (A) (A) (A) (A) (A) (A) (A) (A) (A) (A) (A)
                 (A) (A) (A) (A) (A) (A) (A) (A) (A) (A) (A) (A)
                 (A) (A) (A) (A) (A) (A) (A) (A) (A) (A) (A) (A)
                 (A) (A) (A) (A) (A) (A) (A) (A) (A) (A) (A) (A)
                 (A) (A) (A) (A) (A) (A) (A) (A) (A) (A) (A) (A)
                 (A) (A) (A) (A) (A) (A) (A) (A) (A) (A) (A) (A)
                 (A) (A) (A) (A) (A) (A) (A) (A) (A) (A) (A) (A)
                 (A) (A) (A) (A) (A) (A) (A) (A) (A) (A) (A) (A)
                 (A) (A) (A) (A) (A) (A) (A) (A) (A) (A) (A) (A)
                 (A) (A) (A) (A) (A) (A) (A) (A) (A) (A) (A) (A)
                 (A) (A) (A) (A) (A) (A) (A) (A) (A) (A) (A) (A)
                 (A) (A) (A) (A) (A) (A) (A) (A) (A) (A) (A) (A)
                 (A) (A) (A) (A) (A) (A) (A) (A) (A) (A) (A) (A)
                 (A) (A) (A) (A) (A) (A) (A) (A) (A) (A) (A) (A)
                 (A) (A) (A) (A) (A) (A) (A) (A) (A) (A) (A) (A)
                 (A) (A) (A) (A) (A) (A) (A) (A) (A) (A) (A) (A)
                 (A) (A) (A) (A) (A) (A) (A) (A) (A) (A) (A) (A)
                 (A) (A) (A) (A) (A) (A) (A) (A) (A) (A) (A) (A)
                 (A) (A) (A) (A) (A) (A) (A) (A) (A) (A) (A) (A)
                 (A) (A) (A) (A) (A) (A) (A) (A) (A) (A) (A) (A)
                 (A) (A) (A) (A) (A) (A) (A) (A) (A) (A) (A) (A)
 The electronic state is 3-A.
 Alpha  occ. eigenvalues --  -77.07302 -77.07046 -19.17057 -19.08746 -19.06368
 Alpha  occ. eigenvalues --  -14.33455 -10.25893 -10.23702 -10.23669 -10.20624
 Alpha  occ. eigenvalues --  -10.20536 -10.20413 -10.20295 -10.20085 -10.19439
 Alpha  occ. eigenvalues --  -10.19435 -10.19137 -10.19105 -10.17503 -10.17338
 Alpha  occ. eigenvalues --  -10.17281 -10.17259 -10.17231 -10.17136 -10.17121
 Alpha  occ. eigenvalues --  -10.17084 -10.16975 -10.16972 -10.16819 -10.16341
 Alpha  occ. eigenvalues --   -6.56522  -6.56270  -4.73128  -4.73073  -4.72878
 Alpha  occ. eigenvalues --   -4.72838  -4.72822  -4.72584  -3.04394  -1.89039
 Alpha  occ. eigenvalues --   -1.88909  -1.87266  -1.07353  -0.95095  -0.90216
 Alpha  occ. eigenvalues --   -0.88014  -0.82032  -0.81502  -0.79675  -0.79627
 Alpha  occ. eigenvalues --   -0.79369  -0.79121  -0.73323  -0.69730  -0.67845
 Alpha  occ. eigenvalues --   -0.67734  -0.67651  -0.67377  -0.66881  -0.66811
 Alpha  occ. eigenvalues --   -0.66590  -0.66493  -0.63471  -0.62607  -0.59353
 Alpha  occ. eigenvalues --   -0.59135  -0.54155  -0.53834  -0.53580  -0.51344
 Alpha  occ. eigenvalues --   -0.51040  -0.49967  -0.49263  -0.46863  -0.46660
 Alpha  occ. eigenvalues --   -0.45364  -0.45117  -0.44641  -0.44427  -0.44408
 Alpha  occ. eigenvalues --   -0.44065  -0.43761  -0.43584  -0.43064  -0.42868
 Alpha  occ. eigenvalues --   -0.42597  -0.42326  -0.42132  -0.41924  -0.41489
 Alpha  occ. eigenvalues --   -0.41215  -0.40972  -0.40650  -0.39991  -0.39823
 Alpha  occ. eigenvalues --   -0.38936  -0.38706  -0.38456  -0.37596  -0.37289
 Alpha  occ. eigenvalues --   -0.37112  -0.37050  -0.36956  -0.36778  -0.36487
 Alpha  occ. eigenvalues --   -0.36128  -0.35703  -0.35394  -0.35329  -0.34579
 Alpha  occ. eigenvalues --   -0.34261  -0.33933  -0.33564  -0.33382  -0.32843
 Alpha  occ. eigenvalues --   -0.32544  -0.32317  -0.32116  -0.31931  -0.31403
 Alpha  occ. eigenvalues --   -0.30589  -0.30454  -0.29418  -0.29011  -0.28756
 Alpha  occ. eigenvalues --   -0.28615  -0.27617  -0.26747  -0.26263  -0.25060
 Alpha  occ. eigenvalues --   -0.23796  -0.21739  -0.19019  -0.14445
 Alpha virt. eigenvalues --   -0.03680  -0.02167  -0.01068   0.01295   0.02039
 Alpha virt. eigenvalues --    0.04580   0.04983   0.05639   0.06291   0.06489
 Alpha virt. eigenvalues --    0.07474   0.07830   0.08065   0.08392   0.08666
 Alpha virt. eigenvalues --    0.08830   0.09348   0.09806   0.10182   0.10530
 Alpha virt. eigenvalues --    0.10714   0.11067   0.11430   0.11948   0.12395
 Alpha virt. eigenvalues --    0.12452   0.12813   0.13519   0.13671   0.13727
 Alpha virt. eigenvalues --    0.14021   0.14154   0.14178   0.14987   0.15024
 Alpha virt. eigenvalues --    0.15349   0.15561   0.16215   0.16384   0.16695
 Alpha virt. eigenvalues --    0.16933   0.17236   0.17604   0.17793   0.18054
 Alpha virt. eigenvalues --    0.18068   0.18590   0.18855   0.19367   0.20040
 Alpha virt. eigenvalues --    0.20326   0.20386   0.20841   0.20940   0.21268
 Alpha virt. eigenvalues --    0.21376   0.21445   0.21799   0.21911   0.22425
 Alpha virt. eigenvalues --    0.22894   0.23446   0.23661   0.24389   0.24817
 Alpha virt. eigenvalues --    0.24941   0.25497   0.25897   0.26206   0.26333
 Alpha virt. eigenvalues --    0.27026   0.27551   0.28292   0.28921   0.29883
 Alpha virt. eigenvalues --    0.30850   0.31506   0.31668   0.32683   0.34731
 Alpha virt. eigenvalues --    0.35776   0.36252   0.36666   0.38043   0.39575
 Alpha virt. eigenvalues --    0.39794   0.40190   0.40742   0.40986   0.41219
 Alpha virt. eigenvalues --    0.41536   0.42014   0.42604   0.43127   0.43148
 Alpha virt. eigenvalues --    0.43724   0.44268   0.45073   0.45733   0.45846
 Alpha virt. eigenvalues --    0.46438   0.46865   0.48327   0.49021   0.49143
 Alpha virt. eigenvalues --    0.49698   0.50465   0.52115   0.52523   0.52745
 Alpha virt. eigenvalues --    0.53264   0.53662   0.53851   0.54212   0.54682
 Alpha virt. eigenvalues --    0.54796   0.55845   0.56116   0.56753   0.57777
 Alpha virt. eigenvalues --    0.58297   0.58454   0.58668   0.59283   0.59668
 Alpha virt. eigenvalues --    0.59962   0.60532   0.60756   0.61372   0.61511
 Alpha virt. eigenvalues --    0.62096   0.62316   0.62528   0.63265   0.63349
 Alpha virt. eigenvalues --    0.63626   0.63859   0.64571   0.64760   0.64989
 Alpha virt. eigenvalues --    0.65457   0.65604   0.65828   0.66062   0.66102
 Alpha virt. eigenvalues --    0.66345   0.66532   0.66847   0.67310   0.67491
 Alpha virt. eigenvalues --    0.67609   0.67956   0.68296   0.68537   0.68723
 Alpha virt. eigenvalues --    0.68846   0.69022   0.69261   0.69542   0.69728
 Alpha virt. eigenvalues --    0.70145   0.70622   0.70755   0.71033   0.71260
 Alpha virt. eigenvalues --    0.71445   0.71581   0.71649   0.72325   0.72750
 Alpha virt. eigenvalues --    0.72800   0.73012   0.73352   0.73585   0.73631
 Alpha virt. eigenvalues --    0.73817   0.74038   0.74709   0.75021   0.75404
 Alpha virt. eigenvalues --    0.75498   0.75811   0.76242   0.76491   0.76799
 Alpha virt. eigenvalues --    0.77059   0.77727   0.78201   0.78382   0.78737
 Alpha virt. eigenvalues --    0.78894   0.79517   0.79951   0.80638   0.80738
 Alpha virt. eigenvalues --    0.81070   0.81438   0.81913   0.82463   0.82602
 Alpha virt. eigenvalues --    0.83355   0.83538   0.83884   0.84458   0.85209
 Alpha virt. eigenvalues --    0.85880   0.86430   0.87072   0.87567   0.88157
 Alpha virt. eigenvalues --    0.88794   0.89634   0.89758   0.90438   0.91398
 Alpha virt. eigenvalues --    0.92195   0.92325   0.93706   0.94744   0.95264
 Alpha virt. eigenvalues --    0.96223   0.96359   0.97903   0.99542   1.00455
 Alpha virt. eigenvalues --    1.02095   1.02454   1.03133   1.03289   1.03888
 Alpha virt. eigenvalues --    1.04863   1.05585   1.06588   1.06681   1.07742
 Alpha virt. eigenvalues --    1.08322   1.08700   1.09754   1.10778   1.11791
 Alpha virt. eigenvalues --    1.12522   1.12927   1.14094   1.15076   1.16176
 Alpha virt. eigenvalues --    1.16700   1.17342   1.18130   1.18814   1.19274
 Alpha virt. eigenvalues --    1.20165   1.20662   1.21279   1.21481   1.22187
 Alpha virt. eigenvalues --    1.22911   1.23791   1.24320   1.24892   1.25011
 Alpha virt. eigenvalues --    1.25963   1.26873   1.27398   1.28182   1.28618
 Alpha virt. eigenvalues --    1.29683   1.30502   1.30679   1.31505   1.31741
 Alpha virt. eigenvalues --    1.33222   1.34053   1.35367   1.35964   1.37659
 Alpha virt. eigenvalues --    1.37984   1.39297   1.42357   1.44106   1.44582
 Alpha virt. eigenvalues --    1.47970   1.48500   1.49588   1.49999   1.50401
 Alpha virt. eigenvalues --    1.51726   1.52158   1.53225   1.53525   1.53830
 Alpha virt. eigenvalues --    1.54271   1.54623   1.54915   1.55627   1.56403
 Alpha virt. eigenvalues --    1.56593   1.56799   1.56989   1.57930   1.58172
 Alpha virt. eigenvalues --    1.58610   1.58764   1.59072   1.59229   1.59573
 Alpha virt. eigenvalues --    1.59939   1.60419   1.61284   1.62015   1.62181
 Alpha virt. eigenvalues --    1.62903   1.63665   1.63972   1.64657   1.65192
 Alpha virt. eigenvalues --    1.65681   1.65989   1.66471   1.66731   1.67323
 Alpha virt. eigenvalues --    1.68067   1.69000   1.69608   1.70711   1.71155
 Alpha virt. eigenvalues --    1.72433   1.73198   1.74361   1.74884   1.76163
 Alpha virt. eigenvalues --    1.76592   1.77004   1.77254   1.77594   1.77783
 Alpha virt. eigenvalues --    1.78607   1.78986   1.79195   1.79427   1.79555
 Alpha virt. eigenvalues --    1.79814   1.80313   1.80631   1.81238   1.81609
 Alpha virt. eigenvalues --    1.81777   1.82629   1.82882   1.83628   1.83834
 Alpha virt. eigenvalues --    1.84245   1.84626   1.84739   1.85033   1.85354
 Alpha virt. eigenvalues --    1.85908   1.86259   1.86460   1.87048   1.87409
 Alpha virt. eigenvalues --    1.87575   1.88050   1.88737   1.89361   1.89619
 Alpha virt. eigenvalues --    1.89724   1.90736   1.90924   1.91502   1.91927
 Alpha virt. eigenvalues --    1.92691   1.92956   1.93136   1.93633   1.93763
 Alpha virt. eigenvalues --    1.94161   1.94309   1.94492   1.94929   1.95360
 Alpha virt. eigenvalues --    1.95645   1.95949   1.96227   1.96611   1.97153
 Alpha virt. eigenvalues --    1.98064   1.98374   1.98961   1.99222   1.99894
 Alpha virt. eigenvalues --    2.00209   2.00813   2.01062   2.01280   2.01866
 Alpha virt. eigenvalues --    2.02568   2.02662   2.03844   2.04048   2.04294
 Alpha virt. eigenvalues --    2.05117   2.06196   2.07966   2.08471   2.09976
 Alpha virt. eigenvalues --    2.11059   2.12377   2.15271   2.15941   2.16268
 Alpha virt. eigenvalues --    2.16751   2.17080   2.17730   2.18059   2.18503
 Alpha virt. eigenvalues --    2.18709   2.19055   2.19339   2.19838   2.20240
 Alpha virt. eigenvalues --    2.20771   2.21110   2.21650   2.22428   2.22782
 Alpha virt. eigenvalues --    2.22926   2.23460   2.24314   2.24391   2.25008
 Alpha virt. eigenvalues --    2.25293   2.27446   2.28430   2.28869   2.30109
 Alpha virt. eigenvalues --    2.32367   2.35367   2.38230   2.38691   2.39096
 Alpha virt. eigenvalues --    2.39423   2.40224   2.40781   2.41160   2.41440
 Alpha virt. eigenvalues --    2.42269   2.42314   2.42895   2.43091   2.43434
 Alpha virt. eigenvalues --    2.44543   2.45066   2.46078   2.47222   2.47379
 Alpha virt. eigenvalues --    2.47824   2.49098   2.50430   2.51536   2.52420
 Alpha virt. eigenvalues --    2.55411   2.55678   2.56117   2.56402   2.56558
 Alpha virt. eigenvalues --    2.56658   2.56843   2.57647   2.58547   2.61433
 Alpha virt. eigenvalues --    2.62318   2.62616   2.62915   2.63138   2.63620
 Alpha virt. eigenvalues --    2.63848   2.64009   2.64160   2.64450   2.65125
 Alpha virt. eigenvalues --    2.65279   2.65472   2.66134   2.66212   2.67854
 Alpha virt. eigenvalues --    2.69439   2.72443   2.72650   2.72972   2.73272
 Alpha virt. eigenvalues --    2.73932   2.74398   2.75063   2.77295   2.80753
 Alpha virt. eigenvalues --    2.81829   2.84464   2.86452   2.87220   2.87603
 Alpha virt. eigenvalues --    2.87904   2.88571   2.89044   2.89309   2.89485
 Alpha virt. eigenvalues --    2.89927   2.90974   2.91358   2.92996   2.93119
 Alpha virt. eigenvalues --    2.93743   2.94327   2.94565   2.95566   2.95917
 Alpha virt. eigenvalues --    2.95974   2.96451   2.96913   2.97082   2.97370
 Alpha virt. eigenvalues --    2.98252   2.98811   2.99312   2.99667   3.00222
 Alpha virt. eigenvalues --    3.01608   3.02347   3.02497   3.04276   3.05166
 Alpha virt. eigenvalues --    3.06185   3.07102   3.07768   3.08462   3.09077
 Alpha virt. eigenvalues --    3.09566   3.09970   3.10082   3.11397   3.12221
 Alpha virt. eigenvalues --    3.12724   3.14691   3.19684   3.20651   3.36787
 Alpha virt. eigenvalues --    3.62293   3.73810   3.79521   3.88323  45.27990
  Beta  occ. eigenvalues --  -77.07240 -77.06986 -19.17174 -19.08102 -19.06372
  Beta  occ. eigenvalues --  -14.33220 -10.26048 -10.23711 -10.23678 -10.20629
  Beta  occ. eigenvalues --  -10.20511 -10.20398 -10.20274 -10.20069 -10.19428
  Beta  occ. eigenvalues --  -10.19424 -10.19133 -10.19099 -10.17504 -10.17339
  Beta  occ. eigenvalues --  -10.17274 -10.17260 -10.17222 -10.17128 -10.17113
  Beta  occ. eigenvalues --  -10.17085 -10.16975 -10.16971 -10.16821 -10.16341
  Beta  occ. eigenvalues --   -6.56448  -6.56198  -4.73075  -4.73025  -4.72828
  Beta  occ. eigenvalues --   -4.72775  -4.72694  -4.72440  -2.98657  -1.84867
  Beta  occ. eigenvalues --   -1.80745  -1.80571  -1.07569  -0.94902  -0.89148
  Beta  occ. eigenvalues --   -0.87630  -0.81966  -0.81434  -0.79628  -0.79586
  Beta  occ. eigenvalues --   -0.79342  -0.79094  -0.73254  -0.69666  -0.67826
  Beta  occ. eigenvalues --   -0.67725  -0.67630  -0.67373  -0.66877  -0.66797
  Beta  occ. eigenvalues --   -0.66575  -0.66492  -0.63312  -0.62476  -0.59232
  Beta  occ. eigenvalues --   -0.59013  -0.54118  -0.53850  -0.53753  -0.51272
  Beta  occ. eigenvalues --   -0.50965  -0.49867  -0.49216  -0.46817  -0.46641
  Beta  occ. eigenvalues --   -0.45285  -0.45073  -0.44593  -0.44395  -0.44264
  Beta  occ. eigenvalues --   -0.44050  -0.43720  -0.43532  -0.43059  -0.42843
  Beta  occ. eigenvalues --   -0.42522  -0.42345  -0.42072  -0.41915  -0.41421
  Beta  occ. eigenvalues --   -0.41195  -0.40964  -0.40196  -0.39843  -0.39732
  Beta  occ. eigenvalues --   -0.38909  -0.38675  -0.38433  -0.37582  -0.37274
  Beta  occ. eigenvalues --   -0.37092  -0.37028  -0.36954  -0.36756  -0.36456
  Beta  occ. eigenvalues --   -0.36117  -0.35687  -0.35387  -0.35322  -0.34479
  Beta  occ. eigenvalues --   -0.34209  -0.33765  -0.33418  -0.32823  -0.32520
  Beta  occ. eigenvalues --   -0.32130  -0.32073  -0.31866  -0.31160  -0.31074
  Beta  occ. eigenvalues --   -0.29326  -0.29127  -0.28870  -0.28569  -0.27411
  Beta  occ. eigenvalues --   -0.26732  -0.26485  -0.25314  -0.25072  -0.24996
  Beta  occ. eigenvalues --   -0.21713  -0.20056
  Beta virt. eigenvalues --   -0.07327  -0.03526  -0.03211  -0.02160   0.01230
  Beta virt. eigenvalues --    0.01922   0.02372   0.04644   0.05385   0.06143
  Beta virt. eigenvalues --    0.06316   0.07014   0.07541   0.07970   0.08220
  Beta virt. eigenvalues --    0.08456   0.08796   0.08914   0.09523   0.09855
  Beta virt. eigenvalues --    0.10220   0.10618   0.10760   0.11146   0.11466
  Beta virt. eigenvalues --    0.11968   0.12425   0.12532   0.12927   0.13602
  Beta virt. eigenvalues --    0.13758   0.13798   0.14081   0.14192   0.14244
  Beta virt. eigenvalues --    0.15012   0.15078   0.15382   0.15607   0.16287
  Beta virt. eigenvalues --    0.16449   0.16745   0.17027   0.17341   0.17638
  Beta virt. eigenvalues --    0.17826   0.18081   0.18169   0.18642   0.18870
  Beta virt. eigenvalues --    0.19444   0.20093   0.20379   0.20474   0.20906
  Beta virt. eigenvalues --    0.21024   0.21312   0.21425   0.21535   0.21840
  Beta virt. eigenvalues --    0.21962   0.22541   0.22956   0.23495   0.23842
  Beta virt. eigenvalues --    0.24429   0.24862   0.25029   0.25568   0.25980
  Beta virt. eigenvalues --    0.26310   0.26509   0.27194   0.27620   0.28481
  Beta virt. eigenvalues --    0.29131   0.30209   0.31010   0.31645   0.31789
  Beta virt. eigenvalues --    0.32865   0.34864   0.36011   0.36404   0.37058
  Beta virt. eigenvalues --    0.38308   0.39647   0.39876   0.40314   0.40796
  Beta virt. eigenvalues --    0.41092   0.41362   0.41748   0.42205   0.42851
  Beta virt. eigenvalues --    0.43253   0.43364   0.43870   0.44368   0.45149
  Beta virt. eigenvalues --    0.45781   0.45978   0.46502   0.47042   0.48551
  Beta virt. eigenvalues --    0.49171   0.49303   0.50019   0.50686   0.52258
  Beta virt. eigenvalues --    0.52732   0.52903   0.53443   0.53714   0.54051
  Beta virt. eigenvalues --    0.54356   0.54818   0.54983   0.55943   0.56184
  Beta virt. eigenvalues --    0.56839   0.57859   0.58333   0.58585   0.58858
  Beta virt. eigenvalues --    0.59392   0.59748   0.60030   0.60700   0.60808
  Beta virt. eigenvalues --    0.61443   0.61542   0.62263   0.62414   0.62774
  Beta virt. eigenvalues --    0.63357   0.63375   0.63733   0.63924   0.64620
  Beta virt. eigenvalues --    0.64814   0.65028   0.65492   0.65668   0.65880
  Beta virt. eigenvalues --    0.66097   0.66161   0.66402   0.66604   0.66890
  Beta virt. eigenvalues --    0.67331   0.67567   0.67720   0.68000   0.68356
  Beta virt. eigenvalues --    0.68576   0.68773   0.68903   0.69052   0.69313
  Beta virt. eigenvalues --    0.69584   0.69837   0.70231   0.70665   0.70790
  Beta virt. eigenvalues --    0.71080   0.71348   0.71516   0.71642   0.71735
  Beta virt. eigenvalues --    0.72380   0.72817   0.72875   0.73083   0.73416
  Beta virt. eigenvalues --    0.73614   0.73664   0.73872   0.74107   0.74812
  Beta virt. eigenvalues --    0.75113   0.75521   0.75584   0.75883   0.76348
  Beta virt. eigenvalues --    0.76569   0.76913   0.77175   0.77797   0.78245
  Beta virt. eigenvalues --    0.78473   0.78827   0.78951   0.79597   0.80053
  Beta virt. eigenvalues --    0.80714   0.80833   0.81160   0.81545   0.81958
  Beta virt. eigenvalues --    0.82564   0.82700   0.83416   0.83684   0.83992
  Beta virt. eigenvalues --    0.84518   0.85261   0.85967   0.86546   0.87234
  Beta virt. eigenvalues --    0.87681   0.88303   0.88864   0.89753   0.89923
  Beta virt. eigenvalues --    0.90602   0.91471   0.92311   0.92525   0.93834
  Beta virt. eigenvalues --    0.94918   0.95351   0.96442   0.96609   0.98075
  Beta virt. eigenvalues --    0.99727   1.00780   1.02266   1.02663   1.03276
  Beta virt. eigenvalues --    1.03459   1.04121   1.05060   1.05676   1.06688
  Beta virt. eigenvalues --    1.06961   1.07804   1.08490   1.08909   1.09992
  Beta virt. eigenvalues --    1.10886   1.11894   1.12661   1.13010   1.14278
  Beta virt. eigenvalues --    1.15265   1.16270   1.16739   1.17363   1.18299
  Beta virt. eigenvalues --    1.18904   1.19418   1.20328   1.20855   1.21342
  Beta virt. eigenvalues --    1.21685   1.22294   1.23103   1.24038   1.24384
  Beta virt. eigenvalues --    1.25027   1.25055   1.26054   1.26994   1.27450
  Beta virt. eigenvalues --    1.28260   1.28769   1.29777   1.30677   1.30810
  Beta virt. eigenvalues --    1.31573   1.31870   1.33399   1.34278   1.36045
  Beta virt. eigenvalues --    1.36292   1.37766   1.38113   1.39435   1.42499
  Beta virt. eigenvalues --    1.44187   1.44734   1.48094   1.48590   1.49643
  Beta virt. eigenvalues --    1.50096   1.50487   1.51844   1.52265   1.53370
  Beta virt. eigenvalues --    1.53688   1.53877   1.54309   1.54670   1.54971
  Beta virt. eigenvalues --    1.55686   1.56446   1.56674   1.56833   1.57066
  Beta virt. eigenvalues --    1.57996   1.58219   1.58658   1.58836   1.59106
  Beta virt. eigenvalues --    1.59268   1.59599   1.60004   1.60498   1.61335
  Beta virt. eigenvalues --    1.62225   1.62317   1.62983   1.63725   1.64069
  Beta virt. eigenvalues --    1.64759   1.65336   1.65835   1.66107   1.66557
  Beta virt. eigenvalues --    1.66887   1.67588   1.68309   1.69489   1.69678
  Beta virt. eigenvalues --    1.71017   1.71263   1.72600   1.73528   1.74317
  Beta virt. eigenvalues --    1.74918   1.76378   1.76654   1.77080   1.77335
  Beta virt. eigenvalues --    1.77624   1.77840   1.78670   1.79132   1.79226
  Beta virt. eigenvalues --    1.79565   1.79746   1.79936   1.80419   1.80803
  Beta virt. eigenvalues --    1.81355   1.81704   1.81832   1.82669   1.82914
  Beta virt. eigenvalues --    1.83804   1.83958   1.84490   1.84736   1.84816
  Beta virt. eigenvalues --    1.85135   1.85547   1.85944   1.86385   1.86514
  Beta virt. eigenvalues --    1.87139   1.87577   1.87699   1.88295   1.89401
  Beta virt. eigenvalues --    1.89701   1.90897   1.91054   1.91581   1.92451
  Beta virt. eigenvalues --    1.92599   1.92734   1.93177   1.93344   1.93897
  Beta virt. eigenvalues --    1.94087   1.94324   1.94439   1.94552   1.95129
  Beta virt. eigenvalues --    1.95435   1.95594   1.95976   1.96382   1.96831
  Beta virt. eigenvalues --    1.97246   1.97409   1.98296   1.98696   1.99310
  Beta virt. eigenvalues --    1.99458   2.00024   2.00565   2.00869   2.01198
  Beta virt. eigenvalues --    2.01509   2.01985   2.02641   2.02750   2.04024
  Beta virt. eigenvalues --    2.04194   2.04582   2.07587   2.08062   2.09152
  Beta virt. eigenvalues --    2.09967   2.10681   2.11691   2.12898   2.15480
  Beta virt. eigenvalues --    2.15988   2.16312   2.16797   2.17146   2.17775
  Beta virt. eigenvalues --    2.18159   2.18536   2.18760   2.19139   2.19411
  Beta virt. eigenvalues --    2.19930   2.20318   2.20832   2.21189   2.21736
  Beta virt. eigenvalues --    2.22494   2.22891   2.22995   2.23495   2.24390
  Beta virt. eigenvalues --    2.24483   2.25121   2.25385   2.27526   2.28472
  Beta virt. eigenvalues --    2.29380   2.30165   2.33743   2.35439   2.38287
  Beta virt. eigenvalues --    2.38761   2.39118   2.39452   2.40294   2.40856
  Beta virt. eigenvalues --    2.41201   2.41470   2.42304   2.42346   2.42966
  Beta virt. eigenvalues --    2.43105   2.43495   2.44583   2.45217   2.46099
  Beta virt. eigenvalues --    2.47279   2.47435   2.47860   2.49114   2.50477
  Beta virt. eigenvalues --    2.51574   2.52440   2.55432   2.55696   2.56148
  Beta virt. eigenvalues --    2.56429   2.56581   2.56687   2.56870   2.57668
  Beta virt. eigenvalues --    2.58581   2.61452   2.62304   2.62591   2.62926
  Beta virt. eigenvalues --    2.63159   2.63636   2.63865   2.64034   2.64182
  Beta virt. eigenvalues --    2.64465   2.64990   2.65126   2.65492   2.66066
  Beta virt. eigenvalues --    2.66347   2.67749   2.69490   2.72655   2.72777
  Beta virt. eigenvalues --    2.73025   2.73353   2.74014   2.74461   2.76054
  Beta virt. eigenvalues --    2.77725   2.80878   2.81958   2.84505   2.86488
  Beta virt. eigenvalues --    2.87239   2.87625   2.87920   2.88596   2.89069
  Beta virt. eigenvalues --    2.89339   2.89503   2.89945   2.90989   2.91389
  Beta virt. eigenvalues --    2.93013   2.93150   2.93819   2.94493   2.94693
  Beta virt. eigenvalues --    2.95715   2.95993   2.96081   2.96515   2.96988
  Beta virt. eigenvalues --    2.97095   2.97452   2.98312   2.98997   2.99465
  Beta virt. eigenvalues --    2.99823   3.00985   3.02204   3.02510   3.02840
  Beta virt. eigenvalues --    3.04347   3.05237   3.06226   3.07125   3.07857
  Beta virt. eigenvalues --    3.08569   3.09099   3.09790   3.10094   3.10235
  Beta virt. eigenvalues --    3.11402   3.12234   3.12739   3.14805   3.19482
  Beta virt. eigenvalues --    3.20471   3.37052   3.62395   3.73744   3.80109
  Beta virt. eigenvalues --    3.88360  45.15783
          Condensed to atoms (all electrons):
          Atomic-Atomic Spin Densities.
 Mulliken charges and spin densities:
               1          2
     1  P    0.264222   0.123897
     2  N   -0.116675   0.054805
     3  C    0.018552   0.005551
     4  H    0.056591   0.001708
     5  H    0.088236  -0.000228
     6  O   -0.537294  -0.005450
     7  P    0.266286   0.126480
     8  C   -0.048157  -0.005090
     9  C   -0.003983   0.004297
    10  H    0.007852   0.001365
    11  C    0.064618  -0.004403
    12  H    0.021635   0.000076
    13  C   -0.007461   0.004310
    14  H    0.007429   0.001373
    15  C   -0.040732  -0.005081
    16  C    0.013927   0.006246
    17  H    0.058869   0.001847
    18  H    0.086856  -0.000218
    19  Ru  -0.021642   1.564212
    20  H    0.169111   0.000799
    21  C   -0.377921   0.004760
    22  C   -0.388858   0.006249
    23  C   -0.386577   0.008052
    24  C   -0.389708   0.004359
    25  C    0.073849  -0.000619
    26  H    0.022793   0.000051
    27  H    0.037510   0.002037
    28  H    0.014844  -0.000165
    29  C    0.082272  -0.000107
    30  H    0.011612  -0.000119
    31  H    0.029213   0.002365
    32  H    0.009575   0.000016
    33  C    0.078120   0.001137
    34  H    0.009281   0.002338
    35  H    0.034938  -0.000037
    36  H    0.024327   0.000026
    37  C    0.081183   0.001857
    38  H    0.010582  -0.000082
    39  H    0.012589   0.002636
    40  H    0.023299  -0.000113
    41  C    0.072315  -0.000194
    42  H    0.013425   0.000071
    43  H    0.034990   0.000017
    44  H    0.035052   0.000935
    45  C    0.057754   0.001001
    46  H    0.027847  -0.001222
    47  H    0.035046   0.000111
    48  H    0.017304  -0.000161
    49  C    0.073223   0.000175
    50  H    0.004199  -0.000179
    51  H    0.012552   0.000861
    52  H    0.002978   0.000052
    53  C    0.079618   0.001518
    54  H    0.006656   0.002337
    55  H    0.031610  -0.000053
    56  H    0.024219  -0.000030
    57  C    0.071589  -0.000704
    58  H    0.021205   0.000043
    59  H    0.027695   0.000723
    60  H    0.009405  -0.000074
    61  C    0.078091   0.000280
    62  H    0.040003   0.001292
    63  H    0.020195   0.000110
    64  H    0.011061  -0.000361
    65  C    0.081068   0.001692
    66  H    0.008639  -0.000033
    67  H    0.010940   0.002421
    68  H    0.021238  -0.000097
    69  C    0.069175  -0.000272
    70  H    0.011473  -0.000013
    71  H    0.035966   0.000026
    72  H    0.036079   0.001089
    73  O   -0.513680   0.207676
    74  C    0.048740  -0.091559
    75  H    0.182980  -0.002560
    76  O   -0.161814  -0.036053
 Sum of Mulliken charges =  -0.00000   2.00000
 Mulliken charges and spin densities with hydrogens summed into heavy atoms:
               1          2
     1  P    0.264222   0.123897
     2  N   -0.116675   0.054805
     3  C    0.163378   0.007031
     6  O   -0.368183  -0.004651
     7  P    0.266286   0.126480
     8  C   -0.048157  -0.005090
     9  C    0.003870   0.005663
    11  C    0.086253  -0.004326
    13  C   -0.000033   0.005682
    15  C   -0.040732  -0.005081
    16  C    0.159652   0.007875
    19  Ru  -0.021642   1.564212
    21  C   -0.377921   0.004760
    22  C   -0.388858   0.006249
    23  C   -0.386577   0.008052
    24  C   -0.389708   0.004359
    25  C    0.148995   0.001304
    29  C    0.132672   0.002155
    33  C    0.146666   0.003465
    37  C    0.127653   0.004297
    41  C    0.155783   0.000830
    45  C    0.137951  -0.000272
    49  C    0.092951   0.000909
    53  C    0.142103   0.003772
    57  C    0.129895  -0.000012
    61  C    0.149349   0.001320
    65  C    0.121884   0.003983
    69  C    0.152693   0.000831
    73  O   -0.330700   0.205116
    74  C    0.048740  -0.091559
    76  O   -0.161814  -0.036053
 Electronic spatial extent (au):  <R**2>=          13757.0074
 Charge=              0.0000 electrons
 Dipole moment (field-independent basis, Debye):
    X=              2.1939    Y=             12.5268    Z=             -0.0244  Tot=             12.7175
 Quadrupole moment (field-independent basis, Debye-Ang):
   XX=           -176.6527   YY=           -224.2694   ZZ=           -233.2018
   XY=             -2.1563   XZ=            -11.9142   YZ=              4.8130
 Traceless Quadrupole moment (field-independent basis, Debye-Ang):
   XX=             34.7219   YY=            -12.8948   ZZ=            -21.8271
   XY=             -2.1563   XZ=            -11.9142   YZ=              4.8130
 Octapole moment (field-independent basis, Debye-Ang**2):
  XXX=             15.2444  YYY=            110.2158  ZZZ=            -18.5892  XYY=              5.3921
  XXY=            -15.7407  XXZ=             -1.9999  XZZ=             14.7842  YZZ=             -7.9689
  YYZ=            -10.8132  XYZ=              4.9168
 Hexadecapole moment (field-independent basis, Debye-Ang**3):
 XXXX=         -10557.4723 YYYY=          -4227.7464 ZZZZ=          -3441.7588 XXXY=            -10.2982
 XXXZ=            -60.7515 YYYX=              3.3337 YYYZ=             55.0299 ZZZX=            -48.2541
 ZZZY=             43.8164 XXYY=          -2487.0728 XXZZ=          -2310.0330 YYZZ=          -1305.6540
 XXYZ=              5.2533 YYXZ=            -77.3989 ZZXY=            -18.9651
 N-N= 4.462282245455D+03 E-N=-1.357952546731D+04  KE= 1.921527663084D+03
 Unable to Open any file for archive entry.
 1\1\GINC-NODE115\SP\UB3LYP TD-FC\def2SVP\C24H45N1O3P2Ru1(3)\DO57CIG\26
 -Nov-2024\0\\# td=(triplets,nstates=100,conver=3) ub3lyp scrf=(smd,sol
 vent=water) def2svp empiricaldispersion=gd3bj int=ultrafine scf=xqc gu
 ess=read geom=check\\A_Ru_Cis_straight_CO_DFT_B3LYP_def2SVP_smd_water_
 T_3MC_tweaked_geom_TDDFT_100\\0,3\P,0,3.0192995592,0.1959807598,-0.266
 5744322\N,0,0.607886491,1.9842045583,-0.2791440364\C,0,2.7952126574,1.
 7212849165,-1.3018819036\H,0,3.7241535918,2.2994426003,-1.3903722167\H
 ,0,2.5425131767,1.3453630015,-2.3074020754\O,0,0.4269737069,-0.9018261
 111,-2.1535639108\P,0,-1.8183017968,0.2612312601,-0.003184805\C,0,1.67
 53881728,2.5965515587,-0.8048247539\C,0,1.7478580084,3.993112112,-0.87
 34311133\H,0,2.6248216694,4.4735134676,-1.3103548996\C,0,0.6884956839,
 4.7436033462,-0.3617153138\H,0,0.7194831739,5.8350417753,-0.3954326644
 \C,0,-0.4086862056,4.087617596,0.1972710816\H,0,-1.252872957,4.6436890
 73,0.6083824527\C,0,-0.4171886917,2.6871032958,0.2160194909\C,0,-1.576
 3300554,1.9170550191,0.7966439862\H,0,-2.490418286,2.5252605737,0.7696
 587613\H,0,-1.3622524826,1.6974339829,1.8565702201\Ru,0,0.5883274687,-
 0.6976379608,-0.0775731853\H,0,1.2544772252,-1.2837177155,-2.464340074
 4\C,0,-2.6614570942,0.6562182344,-1.6732230111\C,0,-3.071105084,-0.587
 6416535,1.1656251843\C,0,4.255560782,-0.8277366739,-1.3070594195\C,0,3
 .8733682685,0.8068653528,1.3295877061\C,0,2.9699106731,1.8847969324,1.
 9611487716\H,0,2.9686825467,2.8115183264,1.3722960467\H,0,1.9314132145
 ,1.5592775871,2.0891150556\H,0,3.3715575652,2.1289883063,2.9580478235\
 C,0,4.0195598487,-0.3718543593,2.3127833225\H,0,4.1760810773,0.0267788
 012,3.3284971698\H,0,3.13252508,-1.01629871,2.341442494\H,0,4.88402203
 71,-1.0003654506,2.0710785389\C,0,5.2520866158,1.438110544,1.090943027
 7\H,0,5.6151568372,1.8586757949,2.0442262156\H,0,5.9944376426,0.702587
 492,0.7554429603\H,0,5.2135690491,2.2610825983,0.3618034086\C,0,5.3264
 213751,0.0362158348,-1.991791355\H,0,5.9194317995,0.6289637333,-1.2865
 064941\H,0,6.0193984615,-0.6309182231,-2.5320713417\H,0,4.8858222816,0
 .7172855762,-2.7337298113\C,0,4.9156863462,-1.894950988,-0.423233169\H
 ,0,5.4429756019,-2.6146443978,-1.0708610864\H,0,5.6563062065,-1.465749
 9799,0.2630495547\H,0,4.1718704473,-2.4544373897,0.1645570233\C,0,3.46
 69228455,-1.5533505243,-2.4071630357\H,0,2.7448839618,-2.2650987667,-1
 .9821272511\H,0,2.9491703502,-0.8493897001,-3.0752698159\H,0,4.1741233
 193,-2.128269024,-3.0269143375\C,0,-2.7391712844,-0.631504357,-2.51385
 62068\H,0,-3.0678168355,-0.3672078543,-3.533404471\H,0,-1.7571954876,-
 1.1166456275,-2.5829061215\H,0,-3.4641284714,-1.3492778906,-2.11304019
 55\C,0,-4.0613760384,1.2676078705,-1.5302661121\H,0,-4.4135510275,1.57
 1810273,-2.5308787937\H,0,-4.7920769254,0.5521883208,-1.1311751626\H,0
 ,-4.0624796436,2.1656923496,-0.8944507193\C,0,-1.7755689473,1.67173917
 97,-2.4194617415\H,0,-1.7835166375,2.6593604141,-1.9381744517\H,0,-0.7
 368973747,1.3333504457,-2.5084837445\H,0,-2.1818590859,1.7994941984,-3
 .4365367509\C,0,-2.2935170909,-1.1440245127,2.3667119709\H,0,-1.567511
 2396,-1.910029392,2.0625307865\H,0,-1.763923221,-0.3576335487,2.920363
 3529\H,0,-3.0111338125,-1.6130689832,3.0600930634\C,0,-4.1424298883,0.
 3735363706,1.7052787238\H,0,-4.7346093791,0.8489867934,0.9158416666\H,
 0,-4.8365953334,-0.1998066274,2.3429390879\H,0,-3.7019081415,1.1623704
 647,2.3317356078\C,0,-3.7301202954,-1.7716654342,0.4439854295\H,0,-4.2
 805738709,-2.3757575047,1.1840216851\H,0,-4.4501597698,-1.4492353932,-
 0.3189674225\H,0,-2.9819534877,-2.4245460954,-0.0316201169\O,0,0.59831
 50619,-2.7792393965,-0.1436700613\C,0,0.6858434462,-0.6078232934,1.738
 2327556\H,0,0.5208699473,-2.8480111804,-1.1110167558\O,0,0.7702246578,
 -0.5685856324,2.9065562448\\Version=ES64L-G16RevC.02\State=3-A\HF=-199
 8.9491099\S2=2.020157\S2-1=0.\S2A=2.000226\RMSD=1.089e-09\PG=C01 [X(C2
 4H45N1O3P2Ru1)]\\@
 The archive entry for this job was punched.


 LIFE CAN ONLY BE UNDERSTOOD BACKWARD, BUT MUST
 BE LIVED FORWARD. -- KIRKEGAARD
 Job cpu time:       3 days 15 hours 43 minutes 28.8 seconds.
 Elapsed time:       0 days  3 hours 46 minutes 17.2 seconds.
 File lengths (MBytes):  RWF=  22007 Int=      0 D2E=      0 Chk=   1758 Scr=      1
 Normal termination of Gaussian 16 at Tue Nov 26 17:18:50 2024.
