 Entering Gaussian System, Link 0=g16
 Input=A-Ru_PC_F_Prak_TDDFT.gjf
 Output=A-Ru_PC_F_Prak_TDDFT.log
 Initial command:
 /cluster/apps/g16/g16/l1.exe "/beegfs/do57cig/gauss1994507/Gau-183542.inp" -scrdir="/beegfs/do57cig/gauss1994507/"
 Default CPUs for threads: 0-23
 Default is to use a total of  24 processors:
                               24 via shared-memory
                                1 via Linda
 Entering Link 1 = /cluster/apps/g16/g16/l1.exe PID=    183550.
  
 Copyright (c) 1988-2017, Gaussian, Inc.  All Rights Reserved.
  
 This is part of the Gaussian(R) 16 program.  It is based on
 the Gaussian(R) 09 system (copyright 2009, Gaussian, Inc.),
 the Gaussian(R) 03 system (copyright 2003, Gaussian, Inc.),
 the Gaussian(R) 98 system (copyright 1998, Gaussian, Inc.),
 the Gaussian(R) 94 system (copyright 1995, Gaussian, Inc.),
 the Gaussian 92(TM) system (copyright 1992, Gaussian, Inc.),
 the Gaussian 90(TM) system (copyright 1990, Gaussian, Inc.),
 the Gaussian 88(TM) system (copyright 1988, Gaussian, Inc.),
 the Gaussian 86(TM) system (copyright 1986, Carnegie Mellon
 University), and the Gaussian 82(TM) system (copyright 1983,
 Carnegie Mellon University). Gaussian is a federally registered
 trademark of Gaussian, Inc.
  
 This software contains proprietary and confidential information,
 including trade secrets, belonging to Gaussian, Inc.
  
 This software is provided under written license and may be
 used, copied, transmitted, or stored only in accord with that
 written license.
  
 The following legend is applicable only to US Government
 contracts under FAR:
  
                    RESTRICTED RIGHTS LEGEND
  
 Use, reproduction and disclosure by the US Government is
 subject to restrictions as set forth in subparagraphs (a)
 and (c) of the Commercial Computer Software - Restricted
 Rights clause in FAR 52.227-19.
  
 Gaussian, Inc.
 340 Quinnipiac St., Bldg. 40, Wallingford CT 06492
  
  
 ---------------------------------------------------------------
 Warning -- This program may not be used in any manner that
 competes with the business of Gaussian, Inc. or will provide
 assistance to any competitor of Gaussian, Inc.  The licensee
 of this program is prohibited from giving any competitor of
 Gaussian, Inc. access to this program.  By using this program,
 the user acknowledges that Gaussian, Inc. is engaged in the
 business of creating and licensing software in the field of
 computational chemistry and represents and warrants to the
 licensee that it is not a competitor of Gaussian, Inc. and that
 it will not use this program in any manner prohibited above.
 ---------------------------------------------------------------
  

 Cite this work as:
 Gaussian 16, Revision B.01,
 M. J. Frisch, G. W. Trucks, H. B. Schlegel, G. E. Scuseria, 
 M. A. Robb, J. R. Cheeseman, G. Scalmani, V. Barone, 
 G. A. Petersson, H. Nakatsuji, X. Li, M. Caricato, A. V. Marenich, 
 J. Bloino, B. G. Janesko, R. Gomperts, B. Mennucci, H. P. Hratchian, 
 J. V. Ortiz, A. F. Izmaylov, J. L. Sonnenberg, D. Williams-Young, 
 F. Ding, F. Lipparini, F. Egidi, J. Goings, B. Peng, A. Petrone, 
 T. Henderson, D. Ranasinghe, V. G. Zakrzewski, J. Gao, N. Rega, 
 G. Zheng, W. Liang, M. Hada, M. Ehara, K. Toyota, R. Fukuda, 
 J. Hasegawa, M. Ishida, T. Nakajima, Y. Honda, O. Kitao, H. Nakai, 
 T. Vreven, K. Throssell, J. A. Montgomery, Jr., J. E. Peralta, 
 F. Ogliaro, M. J. Bearpark, J. J. Heyd, E. N. Brothers, K. N. Kudin, 
 V. N. Staroverov, T. A. Keith, R. Kobayashi, J. Normand, 
 K. Raghavachari, A. P. Rendell, J. C. Burant, S. S. Iyengar, 
 J. Tomasi, M. Cossi, J. M. Millam, M. Klene, C. Adamo, R. Cammi, 
 J. W. Ochterski, R. L. Martin, K. Morokuma, O. Farkas, 
 J. B. Foresman, and D. J. Fox, Gaussian, Inc., Wallingford CT, 2016.
 
 ******************************************
 Gaussian 16:  ES64L-G16RevB.01 20-Dec-2017
                 3-Nov-2023 
 ******************************************
 %chk=tddft_Ru_DFT_F_Prak.chk
 %Oldchk=Opt_Ru_DFT_F_Prak.chk
 SetSPE:  set environment variable "MP_BIND" = "yes"
 SetSPE:  set environment variable "MP_BLIST" = "0,1,2,3,4,5,6,7,8,9,10,11,12,13,14,15,16,17,18,19,20,21,22,23"
 Copying data from "Opt_Ru_DFT_F_Prak.chk" to current chk file "tddft_Ru_DFT_F_Prak.chk"
 IOpt=  2 FromEx=T IUOpen= 4 IOptOp= 5 NList=   0 IFRang= 0 IUIn= 4 IUOut= 2.
 Default route: CacheSize=81920
 ----------------------------------------------------------------------
 # td=(singlets,nstates=50,conver=3) b3lyp scrf=(smd,solvent=water,chec
 kpoint) def2svp empiricaldispersion=gd3bj int=ultrafine guess=read geo
 m=check
 ----------------------------------------------------------------------
 1/4=81920,29=2,38=1,40=1,172=1/1;
 2/4=81920,12=2,40=1/2;
 3/4=81920,5=43,7=101,11=9,14=-4,25=1,30=1,70=32202,72=1,74=-5,75=-5,116=-2,124=41/1,2,3,8;
 4/4=81920,5=1/1;
 5/4=81920,5=2,38=6,53=1/2;
 8/4=81920,6=1,10=1,108=50/1;
 9/4=81920,9=3,41=50,42=1,48=1,70=2/14;
 6/4=81920,7=2,8=2,9=2,10=2/1;
 99/4=81920,5=1,9=1/99;
 ----------
 Opt_Ru_DFT
 ----------
 Structure from the checkpoint file:  "tddft_Ru_DFT_F_Prak.chk"
 Charge =  0 Multiplicity = 1
 Redundant internal coordinates found in file.  (old form).
 O,0,4.419035884,4.8820878492,10.5088268422
 P,0,6.7492419575,5.3573906467,8.2177382501
 O,0,6.8443380415,7.6757332572,11.6222668577
 N,0,6.3299174748,2.8764758951,9.8058827289
 C,0,7.4026756687,3.6788623602,7.7455627531
 H,0,7.3041997032,3.4701915615,6.6716259296
 H,0,8.4778642023,3.7157116539,7.9796240805
 O,0,8.6029253659,4.485623934,10.509582246
 P,0,6.2633638984,3.7410363327,12.6518348925
 C,0,6.7668124865,2.581381379,8.5601687327
 C,0,6.6264568205,1.2888109538,8.0476104159
 H,0,6.9816953658,1.0681270489,7.0404081496
 C,0,6.0264282648,0.306168094,8.8334297876
 H,0,5.9078520719,-0.7095778935,8.4499187364
 C,0,5.5755855602,0.6321658037,10.111736295
 H,0,5.101475846,-0.1136243925,10.7507997208
 C,0,5.7381263587,1.9381960465,10.5808262108
 C,0,5.2555186855,2.3411614104,11.9513977785
 H,0,5.2096622559,1.4694012243,12.6181953351
 H,0,4.2356803698,2.745510728,11.8591716945
 C,0,8.0464030352,6.5972043194,7.5679506301
 C,0,5.1494230872,5.5319172468,7.1878792918
 C,0,9.2179927552,6.6967536254,8.5563328247
 H,0,9.9343459638,7.4369617173,8.1634167569
 H,0,9.749414049,5.7435142896,8.6670101713
 H,0,8.890505922,7.0472602001,9.5453513348
 C,0,7.400920203,7.9894858456,7.481521266
 H,0,8.1919240426,8.7349538789,7.2982497239
 H,0,6.8984017373,8.2599840948,8.4233587887
 H,0,6.6775539633,8.0712001124,6.6611189669
 Ru,0,6.5286916434,4.9034835955,10.562020176
 C,0,8.625147108,6.1763291186,6.2076059618
 H,0,9.347354349,6.9437346683,5.8814976815
 H,0,7.8671006501,6.0814700123,5.4232369516
 H,0,9.1712728916,5.2243730164,6.2798277517
 C,0,4.3645768339,6.7685219413,7.6749473948
 H,0,3.3026213213,6.659955785,7.4015234136
 H,0,4.7305021581,7.6929502768,7.2120838415
 H,0,4.422155049,6.9147853165,8.7640728351
 C,0,4.3133889633,4.2602901524,7.4369977271
 H,0,3.3398511533,4.3834836706,6.9344314317
 H,0,4.1359622546,4.0987455585,8.5069434429
 H,0,4.7898742818,3.3670841736,7.0096510553
 C,0,5.3765525178,5.6397743469,5.6738710798
 H,0,4.3932299713,5.6186902813,5.1740862861
 H,0,5.9619034903,4.7939059399,5.283703781
 H,0,5.8694748118,6.5753953267,5.3815572496
 C,0,5.1989909795,4.4699836531,14.0596068585
 C,0,7.7873090642,2.8644089407,13.4030275403
 C,0,6.0953779543,5.3127586473,14.9811930334
 H,0,5.4532579138,5.870635801,15.6824588128
 H,0,6.67996221,6.0488370183,14.4073276748
 H,0,6.7858338805,4.706523613,15.5805715007
 C,0,4.4574688397,3.3858181817,14.8579537109
 H,0,3.8632007971,3.8773851286,15.6467275028
 H,0,5.1262538,2.6701711864,15.3468096892
 H,0,3.755357132,2.826819776,14.2219618088
 C,0,4.1412506571,5.4133112464,13.4681931131
 H,0,3.5542196556,5.8311372075,14.3031055075
 H,0,3.4555724004,4.8958545684,12.7882131654
 H,0,4.5963585202,6.2484433356,12.9198254729
 C,0,8.8711379364,3.9130975304,13.7106115303
 H,0,9.7833694471,3.3936377624,14.050024829
 H,0,8.5728634807,4.6082881027,14.5043406283
 H,0,9.1174214767,4.4859808002,12.8074309713
 C,0,8.331833855,1.8848747954,12.3451824327
 H,0,9.2823475117,1.4695591338,12.7198569955
 H,0,8.5316249511,2.3804059892,11.3892381379
 H,0,7.6511196826,1.0383108537,12.179657387
 C,0,7.4775539464,2.0464975468,14.6639943416
 H,0,8.3845391357,1.4827542701,14.9409028242
 H,0,6.6746220824,1.3136798248,14.4947479699
 H,0,7.2088261441,2.6718539326,15.5245162548
 C,0,6.7122717911,6.5881831218,11.2037560095
 H,0,9.0568290495,5.333525897,10.492526874
 H,0,4.1327615358,5.556950391,9.8858554693
 Recover connectivity data from disk.
                           ----------------------------
                           !    Current Parameters    !
                           ! (Angstroms and Degrees)  !
 --------------------------                            --------------------------
 ! Name  Definition              Value                                          !
 --------------------------------------------------------------------------------
 ! R1    R(1,31)                 2.1104                                         !
 ! R2    R(1,76)                 0.962                                          !
 ! R3    R(2,5)                  1.8621                                         !
 ! R4    R(2,21)                 1.9084                                         !
 ! R5    R(2,22)                 1.9106                                         !
 ! R6    R(2,31)                 2.398                                          !
 ! R7    R(3,74)                 1.1728                                         !
 ! R8    R(4,10)                 1.3527                                         !
 ! R9    R(4,17)                 1.3532                                         !
 ! R10   R(4,31)                 2.1726                                         !
 ! R11   R(5,6)                  1.0984                                         !
 ! R12   R(5,7)                  1.101                                          !
 ! R13   R(5,10)                 1.5074                                         !
 ! R14   R(8,31)                 2.1166                                         !
 ! R15   R(8,75)                 0.9619                                         !
 ! R16   R(9,18)                 1.8617                                         !
 ! R17   R(9,31)                 2.406                                          !
 ! R18   R(9,48)                 1.9095                                         !
 ! R19   R(9,49)                 1.9119                                         !
 ! R20   R(10,11)                1.3976                                         !
 ! R21   R(11,12)                1.0906                                         !
 ! R22   R(11,13)                1.394                                          !
 ! R23   R(13,14)                1.0922                                         !
 ! R24   R(13,15)                1.3941                                         !
 ! R25   R(15,16)                1.0906                                         !
 ! R26   R(15,17)                1.3972                                         !
 ! R27   R(17,18)                1.5079                                         !
 ! R28   R(18,19)                1.0985                                         !
 ! R29   R(18,20)                1.1009                                         !
 ! R30   R(21,23)                1.536                                          !
 ! R31   R(21,27)                1.5371                                         !
 ! R32   R(21,32)                1.5371                                         !
 ! R33   R(22,36)                1.5435                                         !
 ! R34   R(22,40)                1.5421                                         !
 ! R35   R(22,44)                1.5347                                         !
 ! R36   R(23,24)                1.1025                                         !
 ! R37   R(23,25)                1.097                                          !
 ! R38   R(23,26)                1.0992                                         !
 ! R39   R(27,28)                1.1023                                         !
 ! R40   R(27,29)                1.1013                                         !
 ! R41   R(27,30)                1.0968                                         !
 ! R42   R(31,74)                1.8121                                         !
 ! R43   R(32,33)                1.1031                                         !
 ! R44   R(32,34)                1.0949                                         !
 ! R45   R(32,35)                1.0999                                         !
 ! R46   R(36,37)                1.102                                          !
 ! R47   R(36,38)                1.0967                                         !
 ! R48   R(36,39)                1.1004                                         !
 ! R49   R(40,41)                1.1025                                         !
 ! R50   R(40,42)                1.0965                                         !
 ! R51   R(40,43)                1.0989                                         !
 ! R52   R(44,45)                1.1032                                         !
 ! R53   R(44,46)                1.1002                                         !
 ! R54   R(44,47)                1.0972                                         !
 ! R55   R(48,50)                1.5372                                         !
 ! R56   R(48,54)                1.5371                                         !
 ! R57   R(48,58)                1.5357                                         !
 ! R58   R(49,62)                1.5392                                         !
 ! R59   R(49,66)                1.5411                                         !
 ! R60   R(49,70)                1.5346                                         !
 ! R61   R(50,51)                1.1024                                         !
 ! R62   R(50,52)                1.1013                                         !
 ! R63   R(50,53)                1.097                                          !
 ! R64   R(54,55)                1.1032                                         !
 ! R65   R(54,56)                1.0947                                         !
 ! R66   R(54,57)                1.1                                            !
 ! R67   R(58,59)                1.1028                                         !
 ! R68   R(58,60)                1.0956                                         !
 ! R69   R(58,61)                1.0979                                         !
 ! R70   R(62,63)                1.1033                                         !
 ! R71   R(62,64)                1.0965                                         !
 ! R72   R(62,65)                1.0975                                         !
 ! R73   R(66,67)                1.1029                                         !
 ! R74   R(66,68)                1.0951                                         !
 ! R75   R(66,69)                1.0988                                         !
 ! R76   R(70,71)                1.1032                                         !
 ! R77   R(70,72)                1.1002                                         !
 ! R78   R(70,73)                1.0972                                         !
 ! A1    A(31,1,76)            107.859                                          !
 ! A2    A(5,2,21)             105.1152                                         !
 ! A3    A(5,2,22)             103.8565                                         !
 ! A4    A(5,2,31)              96.2889                                         !
 ! A5    A(21,2,22)            109.0425                                         !
 ! A6    A(21,2,31)            121.2217                                         !
 ! A7    A(22,2,31)            117.8543                                         !
 ! A8    A(10,4,17)            121.1564                                         !
 ! A9    A(10,4,31)            119.6371                                         !
 ! A10   A(17,4,31)            119.1848                                         !
 ! A11   A(2,5,6)              112.8113                                         !
 ! A12   A(2,5,7)              104.9878                                         !
 ! A13   A(2,5,10)             111.7911                                         !
 ! A14   A(6,5,7)              107.5631                                         !
 ! A15   A(6,5,10)             110.6227                                         !
 ! A16   A(7,5,10)             108.7487                                         !
 ! A17   A(31,8,75)            106.7896                                         !
 ! A18   A(18,9,31)             95.5203                                         !
 ! A19   A(18,9,48)            105.2286                                         !
 ! A20   A(18,9,49)            103.566                                          !
 ! A21   A(31,9,48)            121.1574                                         !
 ! A22   A(31,9,49)            118.353                                          !
 ! A23   A(48,9,49)            109.2496                                         !
 ! A24   A(4,10,5)             118.3639                                         !
 ! A25   A(4,10,11)            120.4696                                         !
 ! A26   A(5,10,11)            121.1665                                         !
 ! A27   A(10,11,12)           119.5484                                         !
 ! A28   A(10,11,13)           119.239                                          !
 ! A29   A(12,11,13)           121.2116                                         !
 ! A30   A(11,13,14)           120.2897                                         !
 ! A31   A(11,13,15)           119.4234                                         !
 ! A32   A(14,13,15)           120.2867                                         !
 ! A33   A(13,15,16)           121.1965                                         !
 ! A34   A(13,15,17)           119.2616                                         !
 ! A35   A(16,15,17)           119.5417                                         !
 ! A36   A(4,17,15)            120.4473                                         !
 ! A37   A(4,17,18)            118.3721                                         !
 ! A38   A(15,17,18)           121.1797                                         !
 ! A39   A(9,18,17)            111.6939                                         !
 ! A40   A(9,18,19)            113.0134                                         !
 ! A41   A(9,18,20)            104.8817                                         !
 ! A42   A(17,18,19)           110.6717                                         !
 ! A43   A(17,18,20)           108.5713                                         !
 ! A44   A(19,18,20)           107.6769                                         !
 ! A45   A(2,21,23)            109.9653                                         !
 ! A46   A(2,21,27)            108.7943                                         !
 ! A47   A(2,21,32)            112.2951                                         !
 ! A48   A(23,21,27)           107.3245                                         !
 ! A49   A(23,21,32)           107.4596                                         !
 ! A50   A(27,21,32)           110.8778                                         !
 ! A51   A(2,22,36)            109.1994                                         !
 ! A52   A(2,22,40)            106.9508                                         !
 ! A53   A(2,22,44)            114.4712                                         !
 ! A54   A(36,22,40)           109.5119                                         !
 ! A55   A(36,22,44)           109.2836                                         !
 ! A56   A(40,22,44)           107.3103                                         !
 ! A57   A(21,23,24)           108.0463                                         !
 ! A58   A(21,23,25)           112.2165                                         !
 ! A59   A(21,23,26)           111.8625                                         !
 ! A60   A(24,23,25)           107.7352                                         !
 ! A61   A(24,23,26)           107.4672                                         !
 ! A62   A(25,23,26)           109.3079                                         !
 ! A63   A(21,27,28)           108.6986                                         !
 ! A64   A(21,27,29)           111.4709                                         !
 ! A65   A(21,27,30)           112.7372                                         !
 ! A66   A(28,27,29)           107.6703                                         !
 ! A67   A(28,27,30)           107.3691                                         !
 ! A68   A(29,27,30)           108.691                                          !
 ! A69   A(1,31,2)              93.9691                                         !
 ! A70   A(1,31,4)              83.7025                                         !
 ! A71   A(1,31,9)              84.6499                                         !
 ! A72   A(1,31,74)             96.8702                                         !
 ! A73   A(2,31,4)              81.0701                                         !
 ! A74   A(2,31,8)              85.5847                                         !
 ! A75   A(2,31,9)             161.9366                                         !
 ! A76   A(2,31,74)             99.2598                                         !
 ! A77   A(4,31,8)              84.079                                          !
 ! A78   A(4,31,9)              80.8766                                         !
 ! A79   A(8,31,9)              91.9603                                         !
 ! A80   A(8,31,74)             95.3383                                         !
 ! A81   A(9,31,74)             98.7861                                         !
 ! A82   A(21,32,33)           108.5214                                         !
 ! A83   A(21,32,34)           113.3935                                         !
 ! A84   A(21,32,35)           111.4591                                         !
 ! A85   A(33,32,34)           107.5634                                         !
 ! A86   A(33,32,35)           107.2446                                         !
 ! A87   A(34,32,35)           108.4105                                         !
 ! A88   A(22,36,37)           109.4386                                         !
 ! A89   A(22,36,38)           111.8687                                         !
 ! A90   A(22,36,39)           113.0918                                         !
 ! A91   A(37,36,38)           107.4503                                         !
 ! A92   A(37,36,39)           108.0052                                         !
 ! A93   A(38,36,39)           106.7521                                         !
 ! A94   A(22,40,41)           108.2367                                         !
 ! A95   A(22,40,42)           111.5208                                         !
 ! A96   A(22,40,43)           111.8623                                         !
 ! A97   A(41,40,42)           108.5645                                         !
 ! A98   A(41,40,43)           107.2443                                         !
 ! A99   A(42,40,43)           109.2619                                         !
 ! A100  A(22,44,45)           108.279                                          !
 ! A101  A(22,44,46)           111.9971                                         !
 ! A102  A(22,44,47)           112.9071                                         !
 ! A103  A(45,44,46)           107.3898                                         !
 ! A104  A(45,44,47)           107.2194                                         !
 ! A105  A(46,44,47)           108.7914                                         !
 ! A106  A(9,48,50)            109.0411                                         !
 ! A107  A(9,48,54)            112.4929                                         !
 ! A108  A(9,48,58)            109.542                                          !
 ! A109  A(50,48,54)           110.893                                          !
 ! A110  A(50,48,58)           107.2018                                         !
 ! A111  A(54,48,58)           107.5181                                         !
 ! A112  A(9,49,62)            109.1113                                         !
 ! A113  A(9,49,66)            107.6606                                         !
 ! A114  A(9,49,70)            113.9755                                         !
 ! A115  A(62,49,66)           108.7491                                         !
 ! A116  A(62,49,70)           109.942                                          !
 ! A117  A(66,49,70)           107.2523                                         !
 ! A118  A(48,50,51)           108.6115                                         !
 ! A119  A(48,50,52)           111.319                                          !
 ! A120  A(48,50,53)           113.0531                                         !
 ! A121  A(51,50,52)           107.6029                                         !
 ! A122  A(51,50,53)           107.379                                          !
 ! A123  A(52,50,53)           108.6605                                         !
 ! A124  A(48,54,55)           108.4787                                         !
 ! A125  A(48,54,56)           113.473                                          !
 ! A126  A(48,54,57)           111.4737                                         !
 ! A127  A(55,54,56)           107.524                                          !
 ! A128  A(55,54,57)           107.2185                                         !
 ! A129  A(56,54,57)           108.4168                                         !
 ! A130  A(48,58,59)           107.9262                                         !
 ! A131  A(48,58,60)           112.3313                                         !
 ! A132  A(48,58,61)           111.9686                                         !
 ! A133  A(59,58,60)           108.4017                                         !
 ! A134  A(59,58,61)           108.0954                                         !
 ! A135  A(60,58,61)           107.9822                                         !
 ! A136  A(49,62,63)           108.8393                                         !
 ! A137  A(49,62,64)           112.6492                                         !
 ! A138  A(49,62,65)           110.4384                                         !
 ! A139  A(63,62,64)           107.5025                                         !
 ! A140  A(63,62,65)           108.2635                                         !
 ! A141  A(64,62,65)           109.0142                                         !
 ! A142  A(49,66,67)           108.1                                            !
 ! A143  A(49,66,68)           112.0884                                         !
 ! A144  A(49,66,69)           111.9745                                         !
 ! A145  A(67,66,68)           108.0418                                         !
 ! A146  A(67,66,69)           107.155                                          !
 ! A147  A(68,66,69)           109.2767                                         !
 ! A148  A(49,70,71)           108.2192                                         !
 ! A149  A(49,70,72)           112.0816                                         !
 ! A150  A(49,70,73)           112.9618                                         !
 ! A151  A(71,70,72)           107.3524                                         !
 ! A152  A(71,70,73)           107.2027                                         !
 ! A153  A(72,70,73)           108.7571                                         !
 ! A154  L(1,31,8,2,-1)        179.5538                                         !
 ! A155  L(4,31,74,1,-1)       180.5728                                         !
 ! A156  L(3,74,31,21,-1)      179.9201                                         !
 ! A157  L(1,31,8,2,-2)        192.3327                                         !
 ! A158  L(4,31,74,1,-2)       179.615                                          !
 ! A159  L(3,74,31,21,-2)      179.2937                                         !
 ! D1    D(76,1,31,2)          -36.8617                                         !
 ! D2    D(76,1,31,4)         -117.4109                                         !
 ! D3    D(76,1,31,9)          161.2095                                         !
 ! D4    D(76,1,31,74)          62.9741                                         !
 ! D5    D(21,2,5,6)           -73.7086                                         !
 ! D6    D(21,2,5,7)            43.1308                                         !
 ! D7    D(21,2,5,10)          160.8653                                         !
 ! D8    D(22,2,5,6)            40.7929                                         !
 ! D9    D(22,2,5,7)           157.6323                                         !
 ! D10   D(22,2,5,10)          -84.6332                                         !
 ! D11   D(31,2,5,6)           161.5451                                         !
 ! D12   D(31,2,5,7)           -81.6155                                         !
 ! D13   D(31,2,5,10)           36.119                                          !
 ! D14   D(5,2,21,23)          -81.437                                          !
 ! D15   D(5,2,21,27)          161.2855                                         !
 ! D16   D(5,2,21,32)           38.1648                                         !
 ! D17   D(22,2,21,23)         167.7289                                         !
 ! D18   D(22,2,21,27)          50.4515                                         !
 ! D19   D(22,2,21,32)         -72.6693                                         !
 ! D20   D(31,2,21,23)          25.8048                                         !
 ! D21   D(31,2,21,27)         -91.4727                                         !
 ! D22   D(31,2,21,32)         145.4066                                         !
 ! D23   D(5,2,22,36)          169.6164                                         !
 ! D24   D(5,2,22,40)           51.2001                                         !
 ! D25   D(5,2,22,44)          -67.5165                                         !
 ! D26   D(21,2,22,36)         -78.7134                                         !
 ! D27   D(21,2,22,40)         162.8703                                         !
 ! D28   D(21,2,22,44)          44.1537                                         !
 ! D29   D(31,2,22,36)          64.6672                                         !
 ! D30   D(31,2,22,40)         -53.7491                                         !
 ! D31   D(31,2,22,44)        -172.4657                                         !
 ! D32   D(5,2,31,1)          -109.296                                          !
 ! D33   D(5,2,31,4)           -26.3154                                         !
 ! D34   D(5,2,31,8)            58.3713                                         !
 ! D35   D(5,2,31,9)           -24.3844                                         !
 ! D36   D(5,2,31,74)          153.0723                                         !
 ! D37   D(21,2,31,1)          138.7682                                         !
 ! D38   D(21,2,31,4)         -138.2512                                         !
 ! D39   D(21,2,31,8)          -53.5645                                         !
 ! D40   D(21,2,31,9)         -136.3202                                         !
 ! D41   D(21,2,31,74)          41.1365                                         !
 ! D42   D(22,2,31,1)            0.0184                                         !
 ! D43   D(22,2,31,4)           82.999                                          !
 ! D44   D(22,2,31,8)          167.6857                                         !
 ! D45   D(22,2,31,9)           84.9301                                         !
 ! D46   D(22,2,31,74)         -97.6132                                         !
 ! D47   D(17,4,10,5)          179.309                                          !
 ! D48   D(17,4,10,11)          -0.5919                                         !
 ! D49   D(31,4,10,5)            1.0184                                         !
 ! D50   D(31,4,10,11)        -178.8825                                         !
 ! D51   D(10,4,17,15)           0.5849                                         !
 ! D52   D(10,4,17,18)        -179.0654                                         !
 ! D53   D(31,4,17,15)         178.8832                                         !
 ! D54   D(31,4,17,18)          -0.7672                                         !
 ! D55   D(10,4,31,1)          114.0211                                         !
 ! D56   D(10,4,31,2)           18.9822                                         !
 ! D57   D(10,4,31,8)          -67.4603                                         !
 ! D58   D(10,4,31,9)         -160.4115                                         !
 ! D59   D(17,4,31,1)          -64.3034                                         !
 ! D60   D(17,4,31,2)         -159.3423                                         !
 ! D61   D(17,4,31,8)          114.2152                                         !
 ! D62   D(17,4,31,9)           21.264                                          !
 ! D63   D(2,5,10,4)           -28.2328                                         !
 ! D64   D(2,5,10,11)          151.6674                                         !
 ! D65   D(6,5,10,4)          -154.8576                                         !
 ! D66   D(6,5,10,11)           25.0425                                         !
 ! D67   D(7,5,10,4)            87.2236                                         !
 ! D68   D(7,5,10,11)          -92.8763                                         !
 ! D69   D(75,8,31,2)           77.5767                                         !
 ! D70   D(75,8,31,4)          159.0359                                         !
 ! D71   D(75,8,31,9)         -120.3484                                         !
 ! D72   D(75,8,31,74)         -21.333                                          !
 ! D73   D(31,9,18,17)          37.7569                                         !
 ! D74   D(31,9,18,19)         163.3306                                         !
 ! D75   D(31,9,18,20)         -79.6543                                         !
 ! D76   D(48,9,18,17)         162.1612                                         !
 ! D77   D(48,9,18,19)         -72.2651                                         !
 ! D78   D(48,9,18,20)          44.75                                           !
 ! D79   D(49,9,18,17)         -83.1823                                         !
 ! D80   D(49,9,18,19)          42.3914                                         !
 ! D81   D(49,9,18,20)         159.4065                                         !
 ! D82   D(18,9,31,1)           56.3402                                         !
 ! D83   D(18,9,31,2)          -30.0518                                         !
 ! D84   D(18,9,31,4)          -28.1197                                         !
 ! D85   D(18,9,31,8)         -111.8023                                         !
 ! D86   D(18,9,31,74)         152.4882                                         !
 ! D87   D(48,9,31,1)          -55.1789                                         !
 ! D88   D(48,9,31,2)         -141.5709                                         !
 ! D89   D(48,9,31,4)         -139.6388                                         !
 ! D90   D(48,9,31,8)          136.6786                                         !
 ! D91   D(48,9,31,74)          40.9691                                         !
 ! D92   D(49,9,31,1)          164.9992                                         !
 ! D93   D(49,9,31,2)           78.6072                                         !
 ! D94   D(49,9,31,4)           80.5393                                         !
 ! D95   D(49,9,31,8)           -3.1433                                         !
 ! D96   D(49,9,31,74)         -98.8529                                         !
 ! D97   D(18,9,48,50)         162.0635                                         !
 ! D98   D(18,9,48,54)          38.6117                                         !
 ! D99   D(18,9,48,58)         -80.905                                          !
 ! D100  D(31,9,48,50)         -91.6109                                         !
 ! D101  D(31,9,48,54)         144.9373                                         !
 ! D102  D(31,9,48,58)          25.4207                                         !
 ! D103  D(49,9,48,50)          51.4194                                         !
 ! D104  D(49,9,48,54)         -72.0325                                         !
 ! D105  D(49,9,48,58)         168.4509                                         !
 ! D106  D(18,9,49,62)         166.1715                                         !
 ! D107  D(18,9,49,66)          48.311                                          !
 ! D108  D(18,9,49,70)         -70.5201                                         !
 ! D109  D(31,9,49,62)          62.1278                                         !
 ! D110  D(31,9,49,66)         -55.7326                                         !
 ! D111  D(31,9,49,70)        -174.5638                                         !
 ! D112  D(48,9,49,62)         -82.0837                                         !
 ! D113  D(48,9,49,66)         160.0558                                         !
 ! D114  D(48,9,49,70)          41.2247                                         !
 ! D115  D(4,10,11,12)         179.8431                                         !
 ! D116  D(4,10,11,13)           0.2089                                         !
 ! D117  D(5,10,11,12)          -0.055                                          !
 ! D118  D(5,10,11,13)        -179.6892                                         !
 ! D119  D(10,11,13,14)        179.9896                                         !
 ! D120  D(10,11,13,15)          0.1692                                         !
 ! D121  D(12,11,13,14)          0.3617                                         !
 ! D122  D(12,11,13,15)       -179.4587                                         !
 ! D123  D(11,13,15,16)        179.9617                                         !
 ! D124  D(11,13,15,17)         -0.1758                                         !
 ! D125  D(14,13,15,16)          0.1413                                         !
 ! D126  D(14,13,15,17)       -179.9963                                         !
 ! D127  D(13,15,17,4)          -0.1952                                         !
 ! D128  D(13,15,17,18)        179.4452                                         !
 ! D129  D(16,15,17,4)         179.6695                                         !
 ! D130  D(16,15,17,18)         -0.6901                                         !
 ! D131  D(4,17,18,9)          -28.5249                                         !
 ! D132  D(4,17,18,19)        -155.3804                                         !
 ! D133  D(4,17,18,20)          86.6413                                         !
 ! D134  D(15,17,18,9)         151.8274                                         !
 ! D135  D(15,17,18,19)         24.9719                                         !
 ! D136  D(15,17,18,20)        -93.0064                                         !
 ! D137  D(2,21,23,24)        -178.6436                                         !
 ! D138  D(2,21,23,25)          62.727                                          !
 ! D139  D(2,21,23,26)         -60.552                                          !
 ! D140  D(27,21,23,24)        -60.4546                                         !
 ! D141  D(27,21,23,25)       -179.084                                          !
 ! D142  D(27,21,23,26)         57.6371                                         !
 ! D143  D(32,21,23,24)         58.8501                                         !
 ! D144  D(32,21,23,25)        -59.7793                                         !
 ! D145  D(32,21,23,26)        176.9417                                         !
 ! D146  D(2,21,27,28)         169.0763                                         !
 ! D147  D(2,21,27,29)          50.5558                                         !
 ! D148  D(2,21,27,30)         -72.006                                          !
 ! D149  D(23,21,27,28)         50.1307                                         !
 ! D150  D(23,21,27,29)        -68.3898                                         !
 ! D151  D(23,21,27,30)        169.0484                                         !
 ! D152  D(32,21,27,28)        -66.9572                                         !
 ! D153  D(32,21,27,29)        174.5224                                         !
 ! D154  D(32,21,27,30)         51.9606                                         !
 ! D155  D(2,21,32,33)         178.748                                          !
 ! D156  D(2,21,32,34)          59.2974                                         !
 ! D157  D(2,21,32,35)         -63.372                                          !
 ! D158  D(23,21,32,33)        -60.1992                                         !
 ! D159  D(23,21,32,34)       -179.6498                                         !
 ! D160  D(23,21,32,35)         57.6807                                         !
 ! D161  D(27,21,32,33)         56.8057                                         !
 ! D162  D(27,21,32,34)        -62.6449                                         !
 ! D163  D(27,21,32,35)        174.6857                                         !
 ! D164  D(2,22,36,37)        -157.4126                                         !
 ! D165  D(2,22,36,38)          83.6202                                         !
 ! D166  D(2,22,36,39)         -36.9611                                         !
 ! D167  D(40,22,36,37)        -40.6094                                         !
 ! D168  D(40,22,36,38)       -159.5766                                         !
 ! D169  D(40,22,36,39)         79.8421                                         !
 ! D170  D(44,22,36,37)         76.6756                                         !
 ! D171  D(44,22,36,38)        -42.2916                                         !
 ! D172  D(44,22,36,39)       -162.8729                                         !
 ! D173  D(2,22,40,41)         174.3208                                         !
 ! D174  D(2,22,40,42)          54.9632                                         !
 ! D175  D(2,22,40,43)         -67.7413                                         !
 ! D176  D(36,22,40,41)         56.1083                                         !
 ! D177  D(36,22,40,42)        -63.2493                                         !
 ! D178  D(36,22,40,43)        174.0462                                         !
 ! D179  D(44,22,40,41)        -62.4091                                         !
 ! D180  D(44,22,40,42)        178.2333                                         !
 ! D181  D(44,22,40,43)         55.5288                                         !
 ! D182  D(2,22,44,45)         173.5794                                         !
 ! D183  D(2,22,44,46)          55.3567                                         !
 ! D184  D(2,22,44,47)         -67.8637                                         !
 ! D185  D(36,22,44,45)        -63.599                                          !
 ! D186  D(36,22,44,46)        178.1782                                         !
 ! D187  D(36,22,44,47)         54.9579                                         !
 ! D188  D(40,22,44,45)         55.0659                                         !
 ! D189  D(40,22,44,46)        -63.1569                                         !
 ! D190  D(40,22,44,47)        173.6228                                         !
 ! D191  D(9,48,50,51)         170.1802                                         !
 ! D192  D(9,48,50,52)          51.8878                                         !
 ! D193  D(9,48,50,53)         -70.7521                                         !
 ! D194  D(54,48,50,51)        -65.4217                                         !
 ! D195  D(54,48,50,52)        176.2859                                         !
 ! D196  D(54,48,50,53)         53.646                                          !
 ! D197  D(58,48,50,51)         51.6725                                         !
 ! D198  D(58,48,50,52)        -66.6199                                         !
 ! D199  D(58,48,50,53)        170.7402                                         !
 ! D200  D(9,48,54,55)        -179.7634                                         !
 ! D201  D(9,48,54,56)          60.8147                                         !
 ! D202  D(9,48,54,57)         -61.9335                                         !
 ! D203  D(50,48,54,55)         57.8236                                         !
 ! D204  D(50,48,54,56)        -61.5983                                         !
 ! D205  D(50,48,54,57)        175.6535                                         !
 ! D206  D(58,48,54,55)        -59.0765                                         !
 ! D207  D(58,48,54,56)       -178.4983                                         !
 ! D208  D(58,48,54,57)         58.7534                                         !
 ! D209  D(9,48,58,59)        -179.0696                                         !
 ! D210  D(9,48,58,60)          61.4868                                         !
 ! D211  D(9,48,58,61)         -60.2207                                         !
 ! D212  D(50,48,58,59)        -60.887                                          !
 ! D213  D(50,48,58,60)        179.6694                                         !
 ! D214  D(50,48,58,61)         57.9619                                         !
 ! D215  D(54,48,58,59)         58.4009                                         !
 ! D216  D(54,48,58,60)        -61.0427                                         !
 ! D217  D(54,48,58,61)        177.2498                                         !
 ! D218  D(9,49,62,63)        -174.4831                                         !
 ! D219  D(9,49,62,64)          66.3934                                         !
 ! D220  D(9,49,62,65)         -55.7637                                         !
 ! D221  D(66,49,62,63)        -57.3099                                         !
 ! D222  D(66,49,62,64)       -176.4334                                         !
 ! D223  D(66,49,62,65)         61.4095                                         !
 ! D224  D(70,49,62,63)         59.8409                                         !
 ! D225  D(70,49,62,64)        -59.2826                                         !
 ! D226  D(70,49,62,65)        178.5603                                         !
 ! D227  D(9,49,66,67)         172.9546                                         !
 ! D228  D(9,49,66,68)          53.9888                                         !
 ! D229  D(9,49,66,69)         -69.2373                                         !
 ! D230  D(62,49,66,67)         54.8603                                         !
 ! D231  D(62,49,66,68)        -64.1055                                         !
 ! D232  D(62,49,66,69)        172.6684                                         !
 ! D233  D(70,49,66,67)        -63.9927                                         !
 ! D234  D(70,49,66,68)        177.0415                                         !
 ! D235  D(70,49,66,69)         53.8154                                         !
 ! D236  D(9,49,70,71)         172.8671                                         !
 ! D237  D(9,49,70,72)          54.6785                                         !
 ! D238  D(9,49,70,73)         -68.6032                                         !
 ! D239  D(62,49,70,71)        -64.2768                                         !
 ! D240  D(62,49,70,72)        177.5347                                         !
 ! D241  D(62,49,70,73)         54.253                                          !
 ! D242  D(66,49,70,71)         53.8038                                         !
 ! D243  D(66,49,70,72)        -64.3848                                         !
 ! D244  D(66,49,70,73)        172.3335                                         !
 --------------------------------------------------------------------------------
 Stoichiometry    C24H45NO3P2Ru
 Framework group  C1[X(C24H45NO3P2Ru)]
 Deg. of freedom   222
 Full point group                 C1      NOp   1
 Largest Abelian subgroup         C1      NOp   1
 Largest concise Abelian subgroup C1      NOp   1
                         Standard orientation:                         
 ---------------------------------------------------------------------
 Center     Atomic      Atomic             Coordinates (Angstroms)
 Number     Number       Type             X           Y           Z
 ---------------------------------------------------------------------
      1          8           0        0.070924   -0.255714   -2.107992
      2         15           0       -2.366025   -0.129806    0.116933
      3          8           0        0.003228   -3.498117   -0.008342
      4          7           0        0.009301    1.659039    0.012857
      5          6           0       -2.257072    1.529788    0.954345
      6          1           0       -3.183285    2.113506    0.864996
      7          1           0       -2.110015    1.301250    2.021265
      8          8           0       -0.019439   -0.321531    2.093153
      9         15           0        2.372893   -0.143517   -0.111901
     10          6           0       -1.076770    2.328253    0.462706
     11          6           0       -1.096882    3.725657    0.466275
     12          1           0       -1.981374    4.249881    0.829888
     13          6           0        0.014404    4.423810   -0.003575
     14          1           0        0.017083    5.515986   -0.008708
     15          6           0        1.120929    3.715795   -0.470392
     16          1           0        2.005280    4.232536   -0.844942
     17          6           0        1.094462    2.318936   -0.454139
     18          6           0        2.262140    1.510056   -0.960102
     19          1           0        3.192945    2.089674   -0.894281
     20          1           0        2.090561    1.272543   -2.021339
     21          6           0       -3.478180   -1.187462    1.251156
     22          6           0       -3.302510    0.237862   -1.507353
     23          6           0       -2.652753   -1.750849    2.417645
     24          1           0       -3.318208   -2.374518    3.037047
     25          1           0       -2.245334   -0.958866    3.058032
     26          1           0       -1.832151   -2.392225    2.066206
     27          6           0       -4.010057   -2.384361    0.446727
     28          1           0       -4.485352   -3.094748    1.142746
     29          1           0       -3.196028   -2.916518   -0.069913
     30          1           0       -4.766291   -2.095366   -0.293265
     31         44           0       -0.002564   -0.513314   -0.014627
     32          6           0       -4.635310   -0.375521    1.854828
     33          1           0       -5.248099   -1.048691    2.477863
     34          1           0       -5.294242    0.068502    1.101490
     35          1           0       -4.265117    0.427333    2.509101
     36          6           0       -3.235916   -1.002497   -2.423587
     37          1           0       -3.395460   -0.694747   -3.469595
     38          1           0       -4.011933   -1.736358   -2.174675
     39          1           0       -2.271446   -1.529317   -2.367361
     40          6           0       -2.579316    1.418830   -2.185848
     41          1           0       -3.039020    1.582907   -3.174420
     42          1           0       -1.512345    1.209345   -2.327441
     43          1           0       -2.693109    2.350821   -1.614950
     44          6           0       -4.768812    0.649021   -1.316705
     45          1           0       -5.174968    0.947268   -2.298152
     46          1           0       -4.870342    1.512568   -0.642658
     47          1           0       -5.396183   -0.168690   -0.940460
     48          6           0        3.493395   -1.208244   -1.233020
     49          6           0        3.298196    0.247911    1.514682
     50          6           0        4.011767   -2.410456   -0.427367
     51          1           0        4.508026   -3.110295   -1.119661
     52          1           0        3.185731   -2.952670    0.058987
     53          1           0        4.746332   -2.130280    0.337760
     54          6           0        4.659635   -0.405449   -1.831378
     55          1           0        5.258288   -1.079527   -2.467137
     56          1           0        5.330238    0.017752   -1.076662
     57          1           0        4.298587    0.411854   -2.472929
     58          6           0        2.668656   -1.766521   -2.402030
     59          1           0        3.335834   -2.389096   -3.021334
     60          1           0        2.251048   -0.974001   -3.032748
     61          1           0        1.838967   -2.396401   -2.055416
     62          6           0        3.160019   -0.948222    2.473438
     63          1           0        3.608933   -0.679872    3.444865
     64          1           0        3.675920   -1.844077    2.107987
     65          1           0        2.101536   -1.187239    2.637973
     66          6           0        2.621084    1.475901    2.153894
     67          1           0        3.064492    1.630995    3.151731
     68          1           0        1.542826    1.332269    2.280486
     69          1           0        2.799396    2.392088    1.574025
     70          6           0        4.780434    0.594888    1.320930
     71          1           0        5.186643    0.927041    2.291381
     72          1           0        4.922230    1.419321    0.606388
     73          1           0        5.381589   -0.262709    0.993940
     74          6           0       -0.001003   -2.325417   -0.019027
     75          1           0       -0.356552   -1.150909    2.444928
     76          1           0       -0.731867   -0.633296   -2.480072
 ---------------------------------------------------------------------
 Rotational constants (GHZ):           0.1949606           0.1076916           0.0950749
 Standard basis: def2SVP (5D, 7F)
 There are   719 symmetry adapted cartesian basis functions of A   symmetry.
 There are   684 symmetry adapted basis functions of A   symmetry.
   684 basis functions,  1154 primitive gaussians,   719 cartesian basis functions
   133 alpha electrons      133 beta electrons
       nuclear repulsion energy      4528.7782012454 Hartrees.
 NAtoms=   76 NActive=   76 NUniq=   76 SFac= 1.00D+00 NAtFMM=   60 NAOKFM=T Big=T
 Integral buffers will be    131072 words long.
 Regular integral format.
 Two-electron integral symmetry is turned on.
 Nuclear repulsion after empirical dispersion term =     4528.5573849125 Hartrees.
 ------------------------------------------------------------------------------
 Polarizable Continuum Model (PCM)
 =================================
 Model                : PCM.
 Atomic radii         : SMD-Coulomb.
 Polarization charges : Total charges.
 Charge compensation  : None.
 Solution method      : On-the-fly selection.
 Cavity type          : VdW (van der Waals Surface) (Alpha=1.000).
 Cavity algorithm     : GePol (No added spheres)
                        Default sphere list used, NSphG=   76.
                        Lebedev-Laikov grids with approx.  5.0 points / Ang**2.
                        Smoothing algorithm: York/Karplus (Gamma=1.0000).
                        Polarization charges: spherical gaussians, with
                                              point-specific exponents (IZeta= 3).
                        Self-potential: point-specific (ISelfS= 7).
                        Self-field    : sphere-specific E.n sum rule (ISelfD= 2).
 Solvent              : Water, Eps=  78.355300 Eps(inf)=   1.777849
 ------------------------------------------------------------------------------
 ------------------------------------------------------------------------------
 Atomic radii for non-electrostatic terms: SMD-CDS.
 ------------------------------------------------------------------------------
 Nuclear repulsion after PCM non-electrostatic terms =     4528.5770150028 Hartrees.
 One-electron integrals computed using PRISM.
   1 Symmetry operations used in ECPInt.
 ECPInt:  NShTT=   54615 NPrTT=  190596 LenC2=   48091 LenP2D=  113738.
 LDataN:  DoStor=T MaxTD1= 7 Len=  274
 NBasis=   684 RedAO= T EigKep=  4.77D-04  NBF=   684
 NBsUse=   684 1.00D-06 EigRej= -1.00D+00 NBFU=   684
 Defaulting to unpruned grid for atomic number  44.
 Initial guess from the checkpoint file:  "tddft_Ru_DFT_F_Prak.chk"
 B after Tr=     0.000000    0.000000   -0.000000
         Rot=    1.000000    0.000000    0.000000    0.000000 Ang=   0.00 deg.
 Requested convergence on RMS density matrix=1.00D-08 within 128 cycles.
 Requested convergence on MAX density matrix=1.00D-06.
 Requested convergence on             energy=1.00D-06.
 No special actions if energy rises.
 Defaulting to unpruned grid for atomic number  44.
 Defaulting to unpruned grid for atomic number  44.
 Defaulting to unpruned grid for atomic number  44.
 Defaulting to unpruned grid for atomic number  44.
 Defaulting to unpruned grid for atomic number  44.
 Defaulting to unpruned grid for atomic number  44.
 Defaulting to unpruned grid for atomic number  44.
 Defaulting to unpruned grid for atomic number  44.
 Defaulting to unpruned grid for atomic number  44.
 Defaulting to unpruned grid for atomic number  44.
 Defaulting to unpruned grid for atomic number  44.
 Defaulting to unpruned grid for atomic number  44.
 Defaulting to unpruned grid for atomic number  44.
 Defaulting to unpruned grid for atomic number  44.
 Defaulting to unpruned grid for atomic number  44.
 Defaulting to unpruned grid for atomic number  44.
 Defaulting to unpruned grid for atomic number  44.
 Defaulting to unpruned grid for atomic number  44.
 Defaulting to unpruned grid for atomic number  44.
 Defaulting to unpruned grid for atomic number  44.
 Defaulting to unpruned grid for atomic number  44.
 Defaulting to unpruned grid for atomic number  44.
 Defaulting to unpruned grid for atomic number  44.
 Defaulting to unpruned grid for atomic number  44.
 Inv3:  Mode=1 IEnd=    65230707.
 Iteration    1 A*A^-1 deviation from unit magnitude is 3.33D-15 for   3055.
 Iteration    1 A*A^-1 deviation from orthogonality  is 2.91D-15 for   1723   1448.
 Iteration    1 A^-1*A deviation from unit magnitude is 3.22D-15 for   1909.
 Iteration    1 A^-1*A deviation from orthogonality  is 1.89D-15 for   2831   1327.
 Error on total polarization charges =  0.07567
 SCF Done:  E(RB3LYP) =  -1998.99859128     A.U. after    1 cycles
            NFock=  1  Conv=0.37D-08     -V/T= 2.0403
 SMD-CDS (non-electrostatic) energy       (kcal/mol) =      12.32
 (included in total energy above)
 DoSCS=F DFT=T ScalE2(SS,OS)=  1.000000  1.000000
 ExpMin= 3.92D-02 ExpMax= 8.00D+03 ExpMxC= 1.20D+03 IAcc=3 IRadAn=         5 AccDes= 0.00D+00
 HarFok:  IExCor=  205 AccDes= 0.00D+00 IRadAn=         5 IDoV=-2 UseB2=F ITyADJ=14
 ICtDFT= 12500011 ScaDFX=  1.000000  1.000000  1.000000  1.000000
 Defaulting to unpruned grid for atomic number  44.
 GSVD:  LWork=       -2100 too small for GESVD, short by        9450 words or        9450 for optimal perf.
 Range of M.O.s used for correlation:    43   684
 NBasis=   684 NAE=   133 NBE=   133 NFC=    42 NFV=     0
 NROrb=    642 NOA=    91 NOB=    91 NVA=   551 NVB=   551
 NEqPCM:  Using non-equilibrium solvation (IEInf=1, Eps=  78.3553, EpsInf=   1.7778)
 Inv3:  Mode=1 IEnd=    65230707.
 Iteration    1 A*A^-1 deviation from unit magnitude is 4.11D-15 for   2937.
 Iteration    1 A*A^-1 deviation from orthogonality  is 2.22D-15 for   4548    770.
 Iteration    1 A^-1*A deviation from unit magnitude is 4.44D-15 for   2937.
 Iteration    1 A^-1*A deviation from orthogonality  is 2.33D-15 for   2746    532.
 Orbital symmetries:
       Occupied  (A) (A) (A) (A) (A) (A) (A) (A) (A) (A) (A) (A)
                 (A) (A) (A) (A) (A) (A) (A) (A) (A) (A) (A) (A)
                 (A) (A) (A) (A) (A) (A) (A) (A) (A) (A) (A) (A)
                 (A) (A) (A) (A) (A) (A) (A) (A) (A) (A) (A) (A)
                 (A) (A) (A) (A) (A) (A) (A) (A) (A) (A) (A) (A)
                 (A) (A) (A) (A) (A) (A) (A) (A) (A) (A) (A) (A)
                 (A) (A) (A) (A) (A) (A) (A) (A) (A) (A) (A) (A)
                 (A) (A) (A) (A) (A) (A) (A) (A) (A) (A) (A) (A)
                 (A) (A) (A) (A) (A) (A) (A) (A) (A) (A) (A) (A)
                 (A) (A) (A) (A) (A) (A) (A) (A) (A) (A) (A) (A)
                 (A) (A) (A) (A) (A) (A) (A) (A) (A) (A) (A) (A)
                 (A)
       Virtual   (A) (A) (A) (A) (A) (A) (A) (A) (A) (A) (A) (A)
                 (A) (A) (A) (A) (A) (A) (A) (A) (A) (A) (A) (A)
                 (A) (A) (A) (A) (A) (A) (A) (A) (A) (A) (A) (A)
                 (A) (A) (A) (A) (A) (A) (A) (A) (A) (A) (A) (A)
                 (A) (A) (A) (A) (A) (A) (A) (A) (A) (A) (A) (A)
                 (A) (A) (A) (A) (A) (A) (A) (A) (A) (A) (A) (A)
                 (A) (A) (A) (A) (A) (A) (A) (A) (A) (A) (A) (A)
                 (A) (A) (A) (A) (A) (A) (A) (A) (A) (A) (A) (A)
                 (A) (A) (A) (A) (A) (A) (A) (A) (A) (A) (A) (A)
                 (A) (A) (A) (A) (A) (A) (A) (A) (A) (A) (A) (A)
                 (A) (A) (A) (A) (A) (A) (A) (A) (A) (A) (A) (A)
                 (A) (A) (A) (A) (A) (A) (A) (A) (A) (A) (A) (A)
                 (A) (A) (A) (A) (A) (A) (A) (A) (A) (A) (A) (A)
                 (A) (A) (A) (A) (A) (A) (A) (A) (A) (A) (A) (A)
                 (A) (A) (A) (A) (A) (A) (A) (A) (A) (A) (A) (A)
                 (A) (A) (A) (A) (A) (A) (A) (A) (A) (A) (A) (A)
                 (A) (A) (A) (A) (A) (A) (A) (A) (A) (A) (A) (A)
                 (A) (A) (A) (A) (A) (A) (A) (A) (A) (A) (A) (A)
                 (A) (A) (A) (A) (A) (A) (A) (A) (A) (A) (A) (A)
                 (A) (A) (A) (A) (A) (A) (A) (A) (A) (A) (A) (A)
                 (A) (A) (A) (A) (A) (A) (A) (A) (A) (A) (A) (A)
                 (A) (A) (A) (A) (A) (A) (A) (A) (A) (A) (A) (A)
                 (A) (A) (A) (A) (A) (A) (A) (A) (A) (A) (A) (A)
                 (A) (A) (A) (A) (A) (A) (A) (A) (A) (A) (A) (A)
                 (A) (A) (A) (A) (A) (A) (A) (A) (A) (A) (A) (A)
                 (A) (A) (A) (A) (A) (A) (A) (A) (A) (A) (A) (A)
                 (A) (A) (A) (A) (A) (A) (A) (A) (A) (A) (A) (A)
                 (A) (A) (A) (A) (A) (A) (A) (A) (A) (A) (A) (A)
                 (A) (A) (A) (A) (A) (A) (A) (A) (A) (A) (A) (A)
                 (A) (A) (A) (A) (A) (A) (A) (A) (A) (A) (A) (A)
                 (A) (A) (A) (A) (A) (A) (A) (A) (A) (A) (A) (A)
                 (A) (A) (A) (A) (A) (A) (A) (A) (A) (A) (A) (A)
                 (A) (A) (A) (A) (A) (A) (A) (A) (A) (A) (A) (A)
                 (A) (A) (A) (A) (A) (A) (A) (A) (A) (A) (A) (A)
                 (A) (A) (A) (A) (A) (A) (A) (A) (A) (A) (A) (A)
                 (A) (A) (A) (A) (A) (A) (A) (A) (A) (A) (A) (A)
                 (A) (A) (A) (A) (A) (A) (A) (A) (A) (A) (A) (A)
                 (A) (A) (A) (A) (A) (A) (A) (A) (A) (A) (A) (A)
                 (A) (A) (A) (A) (A) (A) (A) (A) (A) (A) (A) (A)
                 (A) (A) (A) (A) (A) (A) (A) (A) (A) (A) (A) (A)
                 (A) (A) (A) (A) (A) (A) (A) (A) (A) (A) (A) (A)
                 (A) (A) (A) (A) (A) (A) (A) (A) (A) (A) (A) (A)
                 (A) (A) (A) (A) (A) (A) (A) (A) (A) (A) (A) (A)
                 (A) (A) (A) (A) (A) (A) (A) (A) (A) (A) (A) (A)
                 (A) (A) (A) (A) (A) (A) (A) (A) (A) (A) (A) (A)
                 (A) (A) (A) (A) (A) (A) (A) (A) (A) (A) (A)
   200 initial guesses have been made.
 Convergence on wavefunction:    0.001000000000000
 Iteration     1 Dimension   200 NMult     0 NNew    200
 CISAX will form   200 AO SS matrices at one time.
 Defaulting to unpruned grid for atomic number  44.
 Defaulting to unpruned grid for atomic number  44.
 Defaulting to unpruned grid for atomic number  44.
 Defaulting to unpruned grid for atomic number  44.
 Defaulting to unpruned grid for atomic number  44.
 Defaulting to unpruned grid for atomic number  44.
 Defaulting to unpruned grid for atomic number  44.
 Defaulting to unpruned grid for atomic number  44.
 Defaulting to unpruned grid for atomic number  44.
 Defaulting to unpruned grid for atomic number  44.
 Defaulting to unpruned grid for atomic number  44.
 Defaulting to unpruned grid for atomic number  44.
 Defaulting to unpruned grid for atomic number  44.
 Defaulting to unpruned grid for atomic number  44.
 Defaulting to unpruned grid for atomic number  44.
 Defaulting to unpruned grid for atomic number  44.
 Defaulting to unpruned grid for atomic number  44.
 Defaulting to unpruned grid for atomic number  44.
 Defaulting to unpruned grid for atomic number  44.
 Defaulting to unpruned grid for atomic number  44.
 Defaulting to unpruned grid for atomic number  44.
 Defaulting to unpruned grid for atomic number  44.
 Defaulting to unpruned grid for atomic number  44.
 Defaulting to unpruned grid for atomic number  44.
 New state      2 was old state      5
 New state      3 was old state      2
 New state      4 was old state      3
 New state      5 was old state      7
 New state      6 was old state      8
 New state      7 was old state      4
 New state      8 was old state     12
 New state      9 was old state      6
 New state     10 was old state     11
 New state     11 was old state     16
 New state     12 was old state      9
 New state     13 was old state     10
 New state     14 was old state     21
 New state     15 was old state     18
 New state     16 was old state     13
 New state     18 was old state     15
 New state     19 was old state     33
 New state     21 was old state     14
 New state     23 was old state     19
 New state     24 was old state     28
 New state     25 was old state     30
 New state     27 was old state     23
 New state     28 was old state     27
 New state     29 was old state     25
 New state     30 was old state     40
 New state     31 was old state     42
 New state     32 was old state     34
 New state     33 was old state     29
 New state     34 was old state     32
 New state     35 was old state     37
 New state     37 was old state     38
 New state     38 was old state     31
 New state     39 was old state     46
 New state     40 was old state     35
 New state     41 was old state     39
 New state     42 was old state     49
 New state     43 was old state     51
 New state     44 was old state     41
 New state     45 was old state     58
 New state     46 was old state     69
 New state     47 was old state     43
 New state     49 was old state     47
 New state     50 was old state     53
 Iteration     2 Dimension   300 NMult   200 NNew    100
 New state     18 was old state     19
 New state     19 was old state     18
 New state     20 was old state     21
 New state     21 was old state     20
 New state     29 was old state     30
 New state     30 was old state     29
 New state     33 was old state     34
 New state     34 was old state     33
 New state     38 was old state     55
 New state     39 was old state     38
 New state     40 was old state     39
 New state     42 was old state     40
 New state     43 was old state     42
 New state     44 was old state     43
 New state     45 was old state     44
 New state     47 was old state     45
 New state     48 was old state     47
 New state     49 was old state     48
 New state     50 was old state     49
 Iteration     3 Dimension   400 NMult   300 NNew    100
 Iteration     4 Dimension   492 NMult   400 NNew     92
 Iteration     5 Dimension   540 NMult   492 NNew     48
 Iteration     6 Dimension   542 NMult   540 NNew      2
 ***********************************************************************
 Excited states from <AA,BB:AA,BB> singles matrix:
 ***********************************************************************
 
 Ground to excited state transition densities written to RWF  633
 Ground to excited state transition electric dipole moments (Au):
       state          X           Y           Z        Dip. S.      Osc.
         1        -0.0745      0.0921     -0.0227      0.0145      0.0010
         2        -0.0601     -0.0902      0.0381      0.0132      0.0010
         3         0.0003      0.2011      0.0194      0.0408      0.0033
         4        -0.0590     -0.5077      0.0253      0.2619      0.0221
         5         0.0677      0.0015     -0.0667      0.0090      0.0008
         6        -0.1262      0.0658     -0.0155      0.0205      0.0020
         7        -0.0117      0.0872     -0.0676      0.0123      0.0012
         8        -0.0555      0.0136      0.0853      0.0105      0.0010
         9        -0.0551     -0.1320     -0.0341      0.0216      0.0022
        10         0.0233     -0.0035      0.1267      0.0166      0.0017
        11         0.1504      0.0699      0.1353      0.0458      0.0050
        12         0.0361     -0.3604      0.0220      0.1317      0.0145
        13        -0.0893      0.1209     -0.0264      0.0233      0.0027
        14        -0.0441      0.0191      0.0249      0.0029      0.0003
        15         0.0887     -0.2464      0.0341      0.0697      0.0083
        16        -0.1493      0.3058      0.0838      0.1228      0.0149
        17        -0.0192     -0.1524      0.0345      0.0248      0.0030
        18        -0.7735     -0.0546      0.1401      0.6210      0.0764
        19        -0.0187      0.3090      0.0555      0.0989      0.0123
        20         0.3552      0.0234      0.0380      0.1282      0.0161
        21        -0.4951     -0.0861     -0.0097      0.2526      0.0321
        22         0.7235      0.0158      0.0079      0.5238      0.0668
        23        -0.3648      0.1491     -0.0589      0.1588      0.0208
        24        -0.3270     -0.0569     -0.0063      0.1102      0.0145
        25         0.1003      0.1590     -0.0416      0.0370      0.0049
        26         0.2547      0.0041      0.1058      0.0761      0.0101
        27         0.0286      0.0188     -0.0637      0.0052      0.0007
        28         0.3610     -0.0779     -0.0728      0.1417      0.0194
        29         0.9038      0.0441      0.0413      0.8205      0.1127
        30         0.4736     -0.0598     -0.0880      0.2356      0.0325
        31         0.1433      0.0858      0.0626      0.0318      0.0044
        32         0.3793     -0.0706     -0.0220      0.1493      0.0211
        33         0.2029      0.9364     -0.0312      0.9190      0.1314
        34         0.1209     -0.0209     -0.1850      0.0493      0.0071
        35        -0.0496     -0.0618     -0.1428      0.0267      0.0039
        36        -0.0884     -0.1510     -0.0087      0.0307      0.0045
        37         0.0416     -0.2189      0.0130      0.0498      0.0073
        38        -0.0608     -0.5469      0.0122      0.3029      0.0443
        39         0.1736      0.1907     -0.0352      0.0678      0.0100
        40         1.1190     -0.1771     -0.0729      1.2889      0.1901
        41        -0.2686     -0.1172     -0.0018      0.0859      0.0128
        42        -0.0185      0.2460      0.0464      0.0630      0.0094
        43        -0.2045      0.1429     -0.0669      0.0667      0.0100
        44        -0.1339      0.0323      0.2626      0.0879      0.0132
        45        -0.1320      0.0798      0.0173      0.0241      0.0037
        46        -0.9534     -0.0461      0.0353      0.9124      0.1397
        47         0.0350     -0.2856     -0.0654      0.0871      0.0134
        48         0.5655      0.0336      0.0796      0.3272      0.0504
        49        -0.4200     -0.0289     -0.2622      0.2460      0.0381
        50         0.3188     -0.2568      0.0823      0.1744      0.0271
 Ground to excited state transition velocity dipole moments (Au):
       state          X           Y           Z        Dip. S.      Osc.
         1         0.0077     -0.0085      0.0033      0.0001      0.0010
         2         0.0034      0.0098     -0.0073      0.0002      0.0010
         3        -0.0029     -0.0201     -0.0027      0.0004      0.0023
         4         0.0080      0.0609     -0.0025      0.0038      0.0198
         5        -0.0107     -0.0019      0.0053      0.0001      0.0007
         6         0.0147     -0.0063      0.0052      0.0003      0.0013
         7         0.0052     -0.0143      0.0099      0.0003      0.0015
         8         0.0103     -0.0001     -0.0139      0.0003      0.0013
         9         0.0103      0.0168      0.0055      0.0004      0.0018
        10        -0.0055      0.0047     -0.0121      0.0002      0.0009
        11        -0.0264     -0.0115     -0.0201      0.0012      0.0051
        12        -0.0068      0.0583     -0.0038      0.0035      0.0140
        13         0.0153     -0.0167      0.0057      0.0005      0.0021
        14         0.0080     -0.0022     -0.0010      0.0001      0.0003
        15        -0.0124      0.0335     -0.0061      0.0013      0.0049
        16         0.0255     -0.0531     -0.0151      0.0037      0.0136
        17         0.0017      0.0285     -0.0077      0.0009      0.0032
        18         0.1408      0.0084     -0.0257      0.0206      0.0743
        19         0.0017     -0.0589     -0.0093      0.0036      0.0127
        20        -0.0626     -0.0068     -0.0042      0.0040      0.0141
        21         0.0871      0.0234      0.0073      0.0082      0.0286
        22        -0.1251     -0.0027     -0.0006      0.0157      0.0546
        23         0.0771     -0.0265      0.0106      0.0068      0.0229
        24         0.0669      0.0113      0.0023      0.0046      0.0156
        25        -0.0185     -0.0311      0.0057      0.0013      0.0045
        26        -0.0468     -0.0033     -0.0289      0.0030      0.0101
        27        -0.0025     -0.0067      0.0142      0.0003      0.0008
        28        -0.0758      0.0205      0.0154      0.0064      0.0208
        29        -0.1917     -0.0079     -0.0073      0.0369      0.1193
        30        -0.0990      0.0093      0.0177      0.0102      0.0329
        31        -0.0286     -0.0213     -0.0123      0.0014      0.0045
        32        -0.0772      0.0085      0.0027      0.0060      0.0190
        33        -0.0423     -0.1987      0.0069      0.0413      0.1284
        34        -0.0302      0.0091      0.0359      0.0023      0.0070
        35         0.0162      0.0116      0.0273      0.0011      0.0035
        36         0.0211      0.0290      0.0030      0.0013      0.0040
        37        -0.0162      0.0454     -0.0005      0.0023      0.0071
        38         0.0158      0.1170     -0.0030      0.0140      0.0424
        39        -0.0388     -0.0386      0.0073      0.0031      0.0092
        40        -0.2508      0.0485      0.0148      0.0655      0.1973
        41         0.0647      0.0151      0.0005      0.0044      0.0131
        42         0.0039     -0.0543     -0.0095      0.0031      0.0091
        43         0.0554     -0.0324      0.0153      0.0044      0.0129
        44         0.0305     -0.0075     -0.0603      0.0046      0.0137
        45         0.0321     -0.0138     -0.0011      0.0012      0.0036
        46         0.2290      0.0094     -0.0079      0.0526      0.1526
        47        -0.0062      0.0644      0.0189      0.0045      0.0132
        48        -0.1287     -0.0071     -0.0206      0.0170      0.0492
        49         0.1008      0.0051      0.0654      0.0145      0.0415
        50        -0.0758      0.0556     -0.0203      0.0092      0.0265
 Ground to excited state transition magnetic dipole moments (Au):
       state          X           Y           Z
         1        -0.0384     -0.0383     -0.2023
         2        -0.1285     -1.3310     -0.0172
         3        -0.0832     -0.2706      0.0616
         4        -0.0147     -0.1631     -0.0879
         5        -0.5672     -0.0408     -0.0986
         6         0.1563     -0.0922      0.4769
         7        -0.4746      0.2317     -0.1749
         8         0.6445     -0.2779     -0.2170
         9         0.0361      0.3109     -0.0914
        10         0.4488     -0.1301     -0.0103
        11         0.7470      0.0184     -0.0873
        12         0.0602      0.1386     -0.0092
        13        -0.0487     -0.0120      0.1679
        14        -0.0852     -0.0780     -0.0492
        15        -0.0445     -0.1315      0.2842
        16        -0.3491      0.0603     -0.8897
        17        -0.2974     -0.0725     -0.6187
        18        -0.3484     -0.0641     -1.8003
        19        -0.0387      0.0768     -0.0954
        20         0.0256     -0.0518     -0.3659
        21         0.0879      0.4032     -0.0416
        22         0.2815      0.0836     -0.0666
        23         0.1153      0.1183      0.2815
        24        -0.0133      0.0852      0.0469
        25        -0.0225      0.3040     -0.2085
        26         0.0522      0.0338     -0.1795
        27         0.3512      0.0403      1.3709
        28        -0.0228      0.5776     -0.3311
        29        -0.1896     -0.2540     -0.8851
        30         0.0725     -0.0303      0.2215
        31        -0.1245     -0.3476     -0.1918
        32        -0.3322     -0.0347      0.1131
        33         0.1902     -0.1591      0.2585
        34         0.1854     -0.1121     -0.1138
        35        -0.2630      0.1124      0.3443
        36        -0.2438      0.0844     -0.2788
        37         0.3656      0.0184      0.1390
        38         0.3139      0.0400      0.4858
        39        -0.0856     -0.1891     -0.1053
        40        -0.1428     -0.0609     -0.1613
        41        -0.0229      0.0513      0.0380
        42        -0.1544     -0.0443     -0.1365
        43        -0.0187      0.1453     -0.0847
        44        -0.1116      0.0915      0.1465
        45         0.0513      0.3444      0.1274
        46         0.0941     -0.2510      0.6378
        47        -0.1576      0.0274     -0.1591
        48         0.0701      0.1024     -0.5384
        49        -0.0565      0.0336      0.2733
        50        -0.0067      0.3006     -0.2341
 Ground to excited state transition velocity quadrupole moments (Au):
       state          XX          YY          ZZ          XY          XZ          YZ
         1        -0.0048      0.0008     -0.0210      0.0136     -0.0043     -0.0194
         2         0.0231      0.0057      0.0140     -0.0015      0.0135      0.0401
         3         0.0227     -0.1315      0.0423     -0.0113      0.0202      0.0205
         4        -0.0628      0.2379     -0.0367     -0.0042     -0.0172      0.0038
         5        -0.0851      0.0258      0.0018      0.0147     -0.1226      0.0542
         6        -0.0104      0.0901     -0.0891     -0.0167     -0.0444     -0.0015
         7        -0.0166     -0.0243     -0.0066      0.0281     -0.0282      0.0030
         8         0.0248     -0.0500     -0.0094      0.0295      0.0122     -0.0456
         9         0.1306     -0.0055     -0.0179      0.0120     -0.0255     -0.0287
        10        -0.0549      0.0057     -0.0244     -0.0485      0.0087     -0.0531
        11        -0.0483     -0.0067     -0.0031      0.0108     -0.0496     -0.0440
        12        -0.0901      0.2454     -0.0222     -0.0070     -0.0490      0.0065
        13         0.0280     -0.0805      0.0249     -0.0243      0.0180     -0.0070
        14        -0.1103      0.0682     -0.0322     -0.0552     -0.0373     -0.0022
        15         0.0440     -0.1741      0.0994      0.0184      0.0478      0.0380
        16         0.0790     -0.3416      0.1374      0.1956     -0.0382     -0.1251
        17        -0.1100      0.2931     -0.1081      0.2090      0.0544     -0.1526
        18         0.0080     -0.0209     -0.0052      0.1552      0.0144     -0.0910
        19         0.1978     -0.2020     -0.1041     -0.0098     -0.0465      0.0212
        20        -0.0472      0.0149      0.0102      0.3048      0.0172     -0.1633
        21         0.0113     -0.0107     -0.0390     -0.0144      0.1413     -0.0235
        22        -0.0730     -0.0041      0.0348     -0.0147      0.1551     -0.0203
        23         0.0038     -0.1245      0.0146     -0.0794      0.0527      0.0830
        24         0.0086      0.1141     -0.0185      0.0754     -0.0716      0.0267
        25        -0.0542     -0.0506     -0.0231     -0.0408     -0.1879     -0.0335
        26         0.0011      0.0839      0.0067     -0.0756     -0.0017      0.0070
        27         0.0000     -0.0280     -0.0174     -0.3445     -0.0450      0.1940
        28        -0.0260     -0.0340      0.0059     -0.0656      0.2470     -0.1546
        29         0.0663     -0.0796      0.0210      0.0233     -0.0371     -0.0244
        30         0.0102      0.0325     -0.0282     -0.1417     -0.0283      0.0552
        31         0.1329     -0.0972      0.0881     -0.0020      0.0618      0.0355
        32         0.0968      0.0192      0.0299      0.1066      0.0264     -0.0437
        33         0.6588     -1.5988      0.3526     -0.0638     -0.0172      0.0289
        34        -0.1568      0.0770     -0.0174      0.1892      0.0551     -0.1226
        35         0.3005     -0.1306      0.0800     -0.0089      0.0210      0.1112
        36         0.4316     -0.0981      0.0939      0.0761      0.0478     -0.0776
        37         0.5665      0.0025      0.0789     -0.0250     -0.1144     -0.0286
        38        -0.4627      1.0225     -0.1838     -0.0737      0.0797      0.0541
        39         0.3598     -0.4528      0.2013      0.0251      0.0855     -0.0330
        40        -0.3717      0.2472     -0.0635      0.0705      0.1550     -0.2264
        41         0.0583      0.2455     -0.0145     -0.0297     -0.0060      0.1806
        42         0.2506     -0.4780      0.1354     -0.0212      0.0375      0.0757
        43        -0.1108     -0.0765      0.0533     -0.0911      0.0575      0.0241
        44         0.0428     -0.0422     -0.0214      0.0562     -0.0254      0.0844
        45        -0.5091      0.2095     -0.1274     -0.0497     -0.2724      0.0127
        46         0.1973     -0.0755      0.0273     -0.2531      0.2818      0.1300
        47        -0.1569      0.4753     -0.0185     -0.0326      0.0868      0.1349
        48        -0.1874      0.1275      0.0874      0.0017     -0.1312      0.0711
        49         0.2520     -0.0646     -0.0071      0.0348      0.1301      0.0239
        50         0.3359      0.1003     -0.2031     -0.0147     -0.1431     -0.0478
 <0|del|b> * <b|rxdel|0> + <0|del|b> * <b|delr+rdel|0>
 Rotatory Strengths (R) in cgs (10**-40 erg-esu-cm/Gauss)
       state          XX          YY          ZZ    R(velocity)    E-M Angle
         1        -1.1813     -4.1299      0.7645     -1.5155      104.73
         2       -41.0146     -0.5830    -42.3962    -27.9979      142.25
         3        16.5582     -0.0582     15.4678     10.6559       21.87
         4       -24.0948      0.3444    -31.0086    -18.2530      149.33
         5        -1.5430     12.4644     17.7632      9.5616       36.59
         6         6.5212     11.7566      7.7659      8.6812       51.52
         7       -12.4598    -10.7238    -12.9484    -12.0440      137.95
         8         6.2816     22.8245     17.0019     15.3693       40.27
         9        12.1762     -1.1339     12.7363      7.9262       40.08
        10         0.1460     -6.0594     -7.6393     -4.5175      116.62
        11         1.6565    -36.1330    -44.7218    -26.3994      133.43
        12        23.5604     -0.9496     10.4104     11.0071       30.03
        13         2.7050      0.5051     -1.5046      0.5685       84.15
        14         0.4017     -1.4054     -0.8044     -0.6027      115.55
        15       -15.5138     -3.0246     -3.5224     -7.3536      119.10
        16        10.2295      8.3839    -13.3969      1.7388       88.68
        17        -0.8727     10.8859     -1.4901      2.8410       83.82
        18        79.7625    -22.3184    -70.2912     -4.2824       90.73
        19       -11.9301      1.4547     -3.5930     -4.6895      118.91
        20         1.3546     21.4304    -21.7215      0.3545       89.30
        21        10.5850     10.0231     41.5686     20.7256       63.44
        22         0.4480    -60.3378    -70.9817    -43.6239      160.01
        23         0.7463     34.3871     -3.6666     10.4889       70.97
        24         3.6886      1.4998     -4.5234      0.2217       88.41
        25       -29.7008      0.1269     -6.7720    -12.1153      139.17
        26        12.8143      0.4065     -3.9294      3.0971       75.46
        27        24.4505     40.1846     -0.6194     21.3386       35.35
        28         1.1512     16.1031     11.9545      9.7363       80.85
        29        13.8187     81.8780     58.3095     51.3354       75.61
        30         2.3797    -10.6120     -3.8658     -4.0327       98.58
        31        18.6863      8.2205     17.9710     14.9593       31.97
        32         0.1426     48.4545     37.0557     28.5509       20.53
        33        48.6818    -11.6214     46.5249     27.8618       69.63
        34         1.9331    -20.7884    -16.0179    -11.6244      156.28
        35        16.6108     11.6904     -7.3069      6.9981       64.72
        36         0.7258    -12.7593      0.5235     -3.8367      105.03
        37         9.6658     -8.9596    -17.3834     -5.5591      105.85
        38        -9.4714      6.6739     29.2085      8.8037       83.14
        39        16.0319      5.8441      9.6794     10.5185       39.99
        40       -18.8708    142.4665    -26.2248     32.4570       57.87
        41         1.3760     16.1521    -19.6973     -0.7231       98.77
        42         9.3868      1.2516     -0.8284      3.2700       74.53
        43        -8.6844      0.6202    -14.0520     -7.3721      129.11
        44       -20.5206     -9.8337    -10.1516    -13.5020      157.53
        45       -13.3168      2.8674      0.3789     -3.3568      104.54
        46       -12.3775     68.1240    -12.2185     14.5093       84.89
        47       -11.4480     -3.4588     14.0887     -0.2727       91.00
        48        14.3404    -10.8034      0.5117      1.3496       88.95
        49        29.9181     18.7419    -11.0521     12.5360       68.56
        50        45.0912     13.0116      8.5652     22.2227       53.16
 1/2[<0|r|b>*<b|rxdel|0> + (<0|rxdel|b>*<b|r|0>)*]
 Rotatory Strengths (R) in cgs (10**-40 erg-esu-cm/Gauss)
       state          XX          YY          ZZ     R(length)
         1        -2.0233      2.4929     -3.2526     -0.9277
         2        -5.4602    -84.9412      0.4628    -29.9795
         3         0.0175     38.4777     -0.8444     12.5502
         4        -0.6138    -58.5526      1.5719    -19.1982
         5        27.1612      0.0440     -4.6551      7.5167
         6        13.9493      4.2904      5.2159      7.8185
         7        -3.9249    -14.2924     -8.3560     -8.8578
         8        25.3121      2.6770     13.0916     13.6936
         9         1.4072     29.0168     -2.2018      9.4074
        10        -7.3913     -0.3189      0.9194     -2.2636
        11       -79.4538     -0.9102      8.3577    -24.0021
        12        -1.5370     35.3127      0.1433     11.3063
        13        -3.0739      1.0294      3.1335      0.3630
        14        -2.6557      1.0552      0.8662     -0.2448
        15         2.7944    -22.9043     -6.8572     -8.9891
        16       -36.8460    -13.0366     52.7267      0.9480
        17        -4.0480     -7.8145     15.0923      1.0766
        18      -190.5892     -2.4766    178.3984     -4.8891
        19        -0.5111    -16.7850      3.7457     -4.5168
        20        -6.4198      0.8574      9.8367      1.4248
        21        30.7811     24.5466     -0.2842     18.3478
        22      -144.0388     -0.9321      0.3739    -48.1990
        23        29.7329    -12.4780     11.7311      9.6620
        24        -3.0649      3.4300      0.2082      0.1911
        25         1.5924    -34.1699     -6.1343    -12.9039
        26        -9.3989     -0.0985     13.4341      1.3122
        27        -7.0967     -0.5350     61.7391     18.0358
        28         5.8183     31.8188    -17.0529      6.8614
        29       121.2014      7.9230     25.8531     51.6592
        30       -24.2780     -1.2787     13.7797     -3.9257
        31        12.6188     21.0885      8.4891     14.0655
        32        89.1151     -1.7323      1.7613     29.7147
        33       -27.2955    105.3619      5.7042     27.9235
        34       -15.8603     -1.6607    -14.8859    -10.8023
        35        -9.2195      4.9132     34.7772     10.1570
        36       -15.2469      9.0082     -1.7119     -2.6502
        37       -10.7606      2.8489     -1.2811     -3.0642
        38        13.5064     15.4717     -4.1962      8.2607
        39        10.5137     25.5022     -2.6203     11.1319
        40       112.9808     -7.6285     -8.3234     32.3430
        41        -4.3531      4.2532      0.0487     -0.0171
        42        -2.0171      7.7056      4.4772      3.3886
        43        -2.7111    -14.6783     -4.0059     -7.1317
        44       -10.5622     -2.0935    -27.1954    -13.2837
        45         4.7922    -19.4438     -1.5565     -5.4027
        46        63.4439     -8.1832    -15.9083     13.1175
        47         3.9001      5.5415     -7.3538      0.6959
        48       -28.0215     -2.4327     30.3018     -0.0508
        49       -16.7704      0.6870     50.6807     11.5324
        50         1.5101     54.5949     13.6202     23.2417
  1/2[<0|del|b>*<b|r|0> + (<0|r|b>*<b|del|0>)*] (Au)
       state          X           Y           Z        Dip. S.   Osc.(frdel)
         1        -0.0006     -0.0008     -0.0001      0.0014      0.0010
         2        -0.0002     -0.0009     -0.0003      0.0014      0.0009
         3        -0.0000     -0.0040     -0.0001      0.0041      0.0027
         4        -0.0005     -0.0309     -0.0001      0.0314      0.0210
         5        -0.0007     -0.0000     -0.0004      0.0011      0.0007
         6        -0.0019     -0.0004     -0.0001      0.0023      0.0016
         7        -0.0001     -0.0012     -0.0007      0.0020      0.0013
         8        -0.0006     -0.0000     -0.0012      0.0018      0.0012
         9        -0.0006     -0.0022     -0.0002      0.0030      0.0020
        10        -0.0001     -0.0000     -0.0015      0.0017      0.0011
        11        -0.0040     -0.0008     -0.0027      0.0075      0.0050
        12        -0.0002     -0.0210     -0.0001      0.0213      0.0142
        13        -0.0014     -0.0020     -0.0002      0.0035      0.0024
        14        -0.0004     -0.0000     -0.0000      0.0004      0.0003
        15        -0.0011     -0.0083     -0.0002      0.0096      0.0064
        16        -0.0038     -0.0162     -0.0013      0.0213      0.0142
        17        -0.0000     -0.0043     -0.0003      0.0046      0.0031
        18        -0.1089     -0.0005     -0.0036      0.1130      0.0753
        19        -0.0000     -0.0182     -0.0005      0.0187      0.0125
        20        -0.0222     -0.0002     -0.0002      0.0225      0.0150
        21        -0.0431     -0.0020     -0.0001      0.0452      0.0301
        22        -0.0905     -0.0000     -0.0000      0.0906      0.0604
        23        -0.0281     -0.0039     -0.0006      0.0327      0.0218
        24        -0.0219     -0.0006     -0.0000      0.0225      0.0150
        25        -0.0019     -0.0049     -0.0002      0.0070      0.0047
        26        -0.0119     -0.0000     -0.0031      0.0150      0.0100
        27        -0.0001     -0.0001     -0.0009      0.0011      0.0007
        28        -0.0274     -0.0016     -0.0011      0.0301      0.0201
        29        -0.1733     -0.0003     -0.0003      0.1739      0.1160
        30        -0.0469     -0.0006     -0.0016      0.0490      0.0327
        31        -0.0041     -0.0018     -0.0008      0.0067      0.0045
        32        -0.0293     -0.0006     -0.0001      0.0300      0.0200
        33        -0.0086     -0.1861     -0.0002      0.1948      0.1299
        34        -0.0037     -0.0002     -0.0066      0.0105      0.0070
        35        -0.0008     -0.0007     -0.0039      0.0054      0.0036
        36        -0.0019     -0.0044     -0.0000      0.0063      0.0042
        37        -0.0007     -0.0099     -0.0000      0.0106      0.0071
        38        -0.0010     -0.0640     -0.0000      0.0650      0.0433
        39        -0.0067     -0.0074     -0.0003      0.0144      0.0096
        40        -0.2807     -0.0086     -0.0011      0.2903      0.1936
        41        -0.0174     -0.0018     -0.0000      0.0192      0.0128
        42        -0.0001     -0.0134     -0.0004      0.0139      0.0093
        43        -0.0113     -0.0046     -0.0010      0.0170      0.0113
        44        -0.0041     -0.0002     -0.0158      0.0202      0.0135
        45        -0.0042     -0.0011     -0.0000      0.0054      0.0036
        46        -0.2183     -0.0004     -0.0003      0.2190      0.1460
        47        -0.0002     -0.0184     -0.0012      0.0199      0.0132
        48        -0.0728     -0.0002     -0.0016      0.0747      0.0498
        49        -0.0423     -0.0001     -0.0171      0.0596      0.0397
        50        -0.0242     -0.0143     -0.0017      0.0401      0.0267

 Excitation energies and oscillator strengths:
 
 Excited State   1:      Singlet-A      2.6889 eV  461.09 nm  f=0.0010  <S**2>=0.000
     133 ->134         0.70487
 This state for optimization and/or second-order correction.
 Total Energy, E(TD-HF/TD-DFT) =  -1998.89977533    
 Copying the excited state density for this state as the 1-particle RhoCI density.
 
 Excited State   2:      Singlet-A      3.0741 eV  403.32 nm  f=0.0010  <S**2>=0.000
     132 ->136         0.11090
     133 ->135        -0.16480
     133 ->136         0.65383
 
 Excited State   3:      Singlet-A      3.3136 eV  374.17 nm  f=0.0033  <S**2>=0.000
     133 ->135         0.68213
     133 ->136         0.15557
 
 Excited State   4:      Singlet-A      3.4512 eV  359.25 nm  f=0.0221  <S**2>=0.000
     132 ->134         0.69871
 
 Excited State   5:      Singlet-A      3.7499 eV  330.63 nm  f=0.0008  <S**2>=0.000
     133 ->137         0.63151
     133 ->138         0.23149
 
 Excited State   6:      Singlet-A      3.9430 eV  314.44 nm  f=0.0020  <S**2>=0.000
     132 ->136         0.10853
     133 ->137        -0.20994
     133 ->138         0.63535
 
 Excited State   7:      Singlet-A      3.9856 eV  311.08 nm  f=0.0012  <S**2>=0.000
     132 ->135         0.50666
     132 ->136        -0.38956
     133 ->137        -0.12162
     133 ->138         0.11296
     133 ->139         0.17975
 
 Excited State   8:      Singlet-A      4.0543 eV  305.81 nm  f=0.0010  <S**2>=0.000
     132 ->135         0.47661
     132 ->136         0.41559
     132 ->137         0.14481
     133 ->139        -0.21209
 
 Excited State   9:      Singlet-A      4.1354 eV  299.81 nm  f=0.0022  <S**2>=0.000
     131 ->134         0.69595
 
 Excited State  10:      Singlet-A      4.1980 eV  295.34 nm  f=0.0017  <S**2>=0.000
     132 ->136         0.16031
     132 ->137         0.32343
     132 ->138         0.11259
     133 ->139         0.56582
 
 Excited State  11:      Singlet-A      4.4119 eV  281.03 nm  f=0.0050  <S**2>=0.000
     132 ->136        -0.27986
     132 ->137         0.50189
     132 ->138         0.21653
     133 ->139        -0.27406
 
 Excited State  12:      Singlet-A      4.4916 eV  276.03 nm  f=0.0145  <S**2>=0.000
     130 ->134         0.69133
 
 Excited State  13:      Singlet-A      4.6989 eV  263.86 nm  f=0.0027  <S**2>=0.000
     131 ->135         0.69901
 
 Excited State  14:      Singlet-A      4.8063 eV  257.96 nm  f=0.0003  <S**2>=0.000
     131 ->139         0.12764
     132 ->139         0.65669
 
 Excited State  15:      Singlet-A      4.8659 eV  254.80 nm  f=0.0083  <S**2>=0.000
     130 ->136         0.13620
     130 ->139        -0.19161
     131 ->136         0.10292
     132 ->137        -0.21890
     132 ->138         0.57310
     132 ->139         0.11551
 
 Excited State  16:      Singlet-A      4.9441 eV  250.77 nm  f=0.0149  <S**2>=0.000
     128 ->134         0.13587
     129 ->134         0.58706
     130 ->135        -0.21977
     130 ->136         0.14809
     131 ->136         0.15939
 
 Excited State  17:      Singlet-A      4.9547 eV  250.24 nm  f=0.0030  <S**2>=0.000
     128 ->134         0.43751
     129 ->134        -0.34567
     130 ->135        -0.25608
     130 ->136         0.19297
     130 ->137        -0.10383
     131 ->136         0.17525
     132 ->138        -0.11092
 
 Excited State  18:      Singlet-A      5.0188 eV  247.04 nm  f=0.0764  <S**2>=0.000
     128 ->134         0.42348
     130 ->136        -0.38659
     130 ->137         0.22589
     130 ->138         0.10813
     131 ->136        -0.16759
     132 ->138         0.10764
 
 Excited State  19:      Singlet-A      5.0622 eV  244.92 nm  f=0.0123  <S**2>=0.000
     127 ->134         0.69553
 
 Excited State  20:      Singlet-A      5.1297 eV  241.70 nm  f=0.0161  <S**2>=0.000
     128 ->134         0.14817
     130 ->135         0.57625
     131 ->136         0.31984
 
 Excited State  21:      Singlet-A      5.1903 eV  238.87 nm  f=0.0321  <S**2>=0.000
     130 ->135         0.11168
     130 ->136         0.12600
     131 ->136        -0.17537
     131 ->137        -0.14951
     133 ->140         0.52221
     133 ->142        -0.28871
 
 Excited State  22:      Singlet-A      5.2072 eV  238.10 nm  f=0.0668  <S**2>=0.000
     130 ->135        -0.16420
     130 ->136        -0.23908
     130 ->137         0.15056
     131 ->136         0.39859
     131 ->137         0.24656
     131 ->138         0.14948
     133 ->140         0.27577
     133 ->142        -0.11913
 
 Excited State  23:      Singlet-A      5.3503 eV  231.73 nm  f=0.0208  <S**2>=0.000
     126 ->134         0.59181
     130 ->136         0.15208
     130 ->137         0.12919
     131 ->136        -0.14384
     131 ->137         0.16625
     133 ->141         0.16500
 
 Excited State  24:      Singlet-A      5.3614 eV  231.25 nm  f=0.0145  <S**2>=0.000
     126 ->134        -0.29637
     130 ->136         0.32590
     130 ->137         0.30822
     130 ->138         0.10772
     131 ->136        -0.12152
     131 ->137         0.30958
     131 ->138         0.17679
     133 ->141         0.12905
 
 Excited State  25:      Singlet-A      5.4147 eV  228.98 nm  f=0.0049  <S**2>=0.000
     126 ->134         0.11911
     130 ->138         0.33290
     131 ->137        -0.29397
     131 ->138         0.46075
     133 ->140        -0.14724
     133 ->141         0.10556
 
 Excited State  26:      Singlet-A      5.4391 eV  227.95 nm  f=0.0101  <S**2>=0.000
     126 ->134        -0.12783
     130 ->136        -0.16238
     130 ->137        -0.11202
     133 ->141         0.63418
 
 Excited State  27:      Singlet-A      5.5232 eV  224.48 nm  f=0.0007  <S**2>=0.000
     128 ->134        -0.12768
     128 ->135        -0.22092
     129 ->135         0.62404
     130 ->137        -0.10182
 
 Excited State  28:      Singlet-A      5.5866 eV  221.93 nm  f=0.0194  <S**2>=0.000
     130 ->137         0.27452
     130 ->138        -0.15847
     131 ->137        -0.26003
     133 ->140         0.27352
     133 ->142         0.43749
 
 Excited State  29:      Singlet-A      5.6070 eV  221.13 nm  f=0.1127  <S**2>=0.000
     127 ->135        -0.24925
     129 ->135         0.11607
     130 ->137         0.32110
     130 ->138         0.14799
     131 ->136         0.13440
     131 ->137        -0.24619
     131 ->138        -0.29315
     133 ->140        -0.13459
     133 ->142        -0.23315
 
 Excited State  30:      Singlet-A      5.6331 eV  220.10 nm  f=0.0325  <S**2>=0.000
     127 ->135         0.64429
     130 ->137         0.14281
 
 Excited State  31:      Singlet-A      5.7100 eV  217.13 nm  f=0.0044  <S**2>=0.000
     130 ->137        -0.15627
     130 ->138         0.48829
     131 ->137         0.12810
     131 ->138        -0.27358
     133 ->140         0.12481
     133 ->142         0.28769
 
 Excited State  32:      Singlet-A      5.7682 eV  214.95 nm  f=0.0211  <S**2>=0.000
     133 ->144         0.61768
     133 ->145         0.23030
 
 Excited State  33:      Singlet-A      5.8357 eV  212.46 nm  f=0.1314  <S**2>=0.000
     122 ->134         0.11923
     123 ->134         0.19020
     126 ->135         0.26223
     128 ->135         0.54750
     129 ->135         0.19646
 
 Excited State  34:      Singlet-A      5.9084 eV  209.85 nm  f=0.0071  <S**2>=0.000
     123 ->134         0.11793
     126 ->135        -0.10664
     131 ->139        -0.15265
     132 ->140        -0.18799
     133 ->142        -0.10996
     133 ->143         0.59242
 
 Excited State  35:      Singlet-A      5.9211 eV  209.39 nm  f=0.0039  <S**2>=0.000
     120 ->134         0.16263
     123 ->134        -0.23086
     126 ->135         0.24284
     131 ->139         0.24252
     132 ->140         0.31616
     132 ->142        -0.17830
     133 ->143         0.31677
     133 ->144        -0.10710
 
 Excited State  36:      Singlet-A      5.9310 eV  209.04 nm  f=0.0045  <S**2>=0.000
     120 ->134        -0.22867
     122 ->134        -0.11327
     123 ->134         0.33662
     126 ->135        -0.28248
     131 ->139         0.32298
     132 ->140         0.22599
     132 ->142        -0.11729
 
 Excited State  37:      Singlet-A      5.9479 eV  208.45 nm  f=0.0073  <S**2>=0.000
     126 ->135         0.13927
     130 ->139        -0.13325
     131 ->139         0.45144
     132 ->140        -0.39593
     132 ->141        -0.10480
     132 ->142         0.22201
 
 Excited State  38:      Singlet-A      5.9639 eV  207.89 nm  f=0.0443  <S**2>=0.000
     120 ->134        -0.18258
     122 ->134        -0.21583
     123 ->134         0.21012
     125 ->134         0.18082
     126 ->135         0.41507
     127 ->136        -0.13729
     128 ->135        -0.25172
     129 ->136        -0.18728
 
 Excited State  39:      Singlet-A      6.0074 eV  206.39 nm  f=0.0100  <S**2>=0.000
     123 ->134        -0.13377
     125 ->134         0.66363
     129 ->136         0.10042
 
 Excited State  40:      Singlet-A      6.0208 eV  205.93 nm  f=0.1901  <S**2>=0.000
     126 ->135         0.23536
     126 ->136         0.19616
     127 ->136         0.32205
     127 ->137         0.14236
     128 ->136        -0.10255
     129 ->136         0.40497
     129 ->137         0.11652
 
 Excited State  41:      Singlet-A      6.0944 eV  203.44 nm  f=0.0128  <S**2>=0.000
     130 ->139         0.26701
     132 ->141        -0.35715
     133 ->144        -0.17637
     133 ->145         0.40806
 
 Excited State  42:      Singlet-A      6.1002 eV  203.25 nm  f=0.0094  <S**2>=0.000
     122 ->134         0.10438
     123 ->134         0.16912
     124 ->134         0.65467
 
 Excited State  43:      Singlet-A      6.1315 eV  202.21 nm  f=0.0100  <S**2>=0.000
     127 ->136        -0.22291
     129 ->137        -0.10258
     130 ->139        -0.15417
     132 ->141         0.40463
     133 ->144        -0.15061
     133 ->145         0.41147
 
 Excited State  44:      Singlet-A      6.1413 eV  201.89 nm  f=0.0132  <S**2>=0.000
     127 ->136         0.43861
     127 ->137        -0.19126
     129 ->136        -0.33375
     129 ->137         0.19751
     132 ->141         0.18593
     133 ->145         0.14662
 
 Excited State  45:      Singlet-A      6.2121 eV  199.59 nm  f=0.0037  <S**2>=0.000
     133 ->146         0.44820
     133 ->148         0.36810
     133 ->149        -0.12395
     133 ->150        -0.28686
 
 Excited State  46:      Singlet-A      6.2501 eV  198.37 nm  f=0.1397  <S**2>=0.000
     120 ->134        -0.15865
     123 ->134        -0.10449
     126 ->136         0.51478
     128 ->136         0.30887
 
 Excited State  47:      Singlet-A      6.2578 eV  198.13 nm  f=0.0134  <S**2>=0.000
     120 ->134         0.46207
     121 ->134         0.12250
     123 ->134         0.34444
     126 ->136         0.11297
     127 ->137        -0.10566
     129 ->137        -0.21565
     133 ->146        -0.10313
 
 Excited State  48:      Singlet-A      6.2887 eV  197.15 nm  f=0.0504  <S**2>=0.000
     120 ->134        -0.19990
     123 ->134        -0.10139
     126 ->137        -0.10058
     127 ->136         0.12423
     127 ->137        -0.24742
     128 ->136        -0.10239
     129 ->137        -0.24605
     132 ->140         0.23474
     132 ->141         0.11530
     132 ->142         0.28095
     133 ->145        -0.12567
     133 ->147         0.18532
 
 Excited State  49:      Singlet-A      6.3206 eV  196.16 nm  f=0.0381  <S**2>=0.000
     129 ->137         0.13693
     133 ->146         0.19460
     133 ->147         0.56352
     133 ->148        -0.21445
 
 Excited State  50:      Singlet-A      6.3414 eV  195.52 nm  f=0.0271  <S**2>=0.000
     126 ->138         0.10388
     127 ->137        -0.18189
     127 ->138         0.34771
     130 ->139         0.21024
     132 ->141         0.23567
     133 ->146         0.25213
     133 ->147        -0.22110
     133 ->149         0.17563
     133 ->150         0.12529
 SavETr:  write IOETrn=   770 NScale= 10 NData=  16 NLR=1 NState=   50 LETran=     910.

 **********************************************************************

            Population analysis using the SCF Density.

 **********************************************************************

 Orbital symmetries:
       Occupied  (A) (A) (A) (A) (A) (A) (A) (A) (A) (A) (A) (A)
                 (A) (A) (A) (A) (A) (A) (A) (A) (A) (A) (A) (A)
                 (A) (A) (A) (A) (A) (A) (A) (A) (A) (A) (A) (A)
                 (A) (A) (A) (A) (A) (A) (A) (A) (A) (A) (A) (A)
                 (A) (A) (A) (A) (A) (A) (A) (A) (A) (A) (A) (A)
                 (A) (A) (A) (A) (A) (A) (A) (A) (A) (A) (A) (A)
                 (A) (A) (A) (A) (A) (A) (A) (A) (A) (A) (A) (A)
                 (A) (A) (A) (A) (A) (A) (A) (A) (A) (A) (A) (A)
                 (A) (A) (A) (A) (A) (A) (A) (A) (A) (A) (A) (A)
                 (A) (A) (A) (A) (A) (A) (A) (A) (A) (A) (A) (A)
                 (A) (A) (A) (A) (A) (A) (A) (A) (A) (A) (A) (A)
                 (A)
       Virtual   (A) (A) (A) (A) (A) (A) (A) (A) (A) (A) (A) (A)
                 (A) (A) (A) (A) (A) (A) (A) (A) (A) (A) (A) (A)
                 (A) (A) (A) (A) (A) (A) (A) (A) (A) (A) (A) (A)
                 (A) (A) (A) (A) (A) (A) (A) (A) (A) (A) (A) (A)
                 (A) (A) (A) (A) (A) (A) (A) (A) (A) (A) (A) (A)
                 (A) (A) (A) (A) (A) (A) (A) (A) (A) (A) (A) (A)
                 (A) (A) (A) (A) (A) (A) (A) (A) (A) (A) (A) (A)
                 (A) (A) (A) (A) (A) (A) (A) (A) (A) (A) (A) (A)
                 (A) (A) (A) (A) (A) (A) (A) (A) (A) (A) (A) (A)
                 (A) (A) (A) (A) (A) (A) (A) (A) (A) (A) (A) (A)
                 (A) (A) (A) (A) (A) (A) (A) (A) (A) (A) (A) (A)
                 (A) (A) (A) (A) (A) (A) (A) (A) (A) (A) (A) (A)
                 (A) (A) (A) (A) (A) (A) (A) (A) (A) (A) (A) (A)
                 (A) (A) (A) (A) (A) (A) (A) (A) (A) (A) (A) (A)
                 (A) (A) (A) (A) (A) (A) (A) (A) (A) (A) (A) (A)
                 (A) (A) (A) (A) (A) (A) (A) (A) (A) (A) (A) (A)
                 (A) (A) (A) (A) (A) (A) (A) (A) (A) (A) (A) (A)
                 (A) (A) (A) (A) (A) (A) (A) (A) (A) (A) (A) (A)
                 (A) (A) (A) (A) (A) (A) (A) (A) (A) (A) (A) (A)
                 (A) (A) (A) (A) (A) (A) (A) (A) (A) (A) (A) (A)
                 (A) (A) (A) (A) (A) (A) (A) (A) (A) (A) (A) (A)
                 (A) (A) (A) (A) (A) (A) (A) (A) (A) (A) (A) (A)
                 (A) (A) (A) (A) (A) (A) (A) (A) (A) (A) (A) (A)
                 (A) (A) (A) (A) (A) (A) (A) (A) (A) (A) (A) (A)
                 (A) (A) (A) (A) (A) (A) (A) (A) (A) (A) (A) (A)
                 (A) (A) (A) (A) (A) (A) (A) (A) (A) (A) (A) (A)
                 (A) (A) (A) (A) (A) (A) (A) (A) (A) (A) (A) (A)
                 (A) (A) (A) (A) (A) (A) (A) (A) (A) (A) (A) (A)
                 (A) (A) (A) (A) (A) (A) (A) (A) (A) (A) (A) (A)
                 (A) (A) (A) (A) (A) (A) (A) (A) (A) (A) (A) (A)
                 (A) (A) (A) (A) (A) (A) (A) (A) (A) (A) (A) (A)
                 (A) (A) (A) (A) (A) (A) (A) (A) (A) (A) (A) (A)
                 (A) (A) (A) (A) (A) (A) (A) (A) (A) (A) (A) (A)
                 (A) (A) (A) (A) (A) (A) (A) (A) (A) (A) (A) (A)
                 (A) (A) (A) (A) (A) (A) (A) (A) (A) (A) (A) (A)
                 (A) (A) (A) (A) (A) (A) (A) (A) (A) (A) (A) (A)
                 (A) (A) (A) (A) (A) (A) (A) (A) (A) (A) (A) (A)
                 (A) (A) (A) (A) (A) (A) (A) (A) (A) (A) (A) (A)
                 (A) (A) (A) (A) (A) (A) (A) (A) (A) (A) (A) (A)
                 (A) (A) (A) (A) (A) (A) (A) (A) (A) (A) (A) (A)
                 (A) (A) (A) (A) (A) (A) (A) (A) (A) (A) (A) (A)
                 (A) (A) (A) (A) (A) (A) (A) (A) (A) (A) (A) (A)
                 (A) (A) (A) (A) (A) (A) (A) (A) (A) (A) (A) (A)
                 (A) (A) (A) (A) (A) (A) (A) (A) (A) (A) (A) (A)
                 (A) (A) (A) (A) (A) (A) (A) (A) (A) (A) (A) (A)
                 (A) (A) (A) (A) (A) (A) (A) (A) (A) (A) (A)
 The electronic state is 1-A.
 Alpha  occ. eigenvalues --  -77.07462 -77.07213 -19.17350 -19.05895 -19.05885
 Alpha  occ. eigenvalues --  -14.35872 -10.26072 -10.24526 -10.24509 -10.20957
 Alpha  occ. eigenvalues --  -10.20437 -10.20250 -10.20245 -10.19982 -10.19776
 Alpha  occ. eigenvalues --  -10.19762 -10.19188 -10.19126 -10.17389 -10.17371
 Alpha  occ. eigenvalues --  -10.17295 -10.17236 -10.17210 -10.17130 -10.17109
 Alpha  occ. eigenvalues --  -10.17104 -10.16574 -10.16567 -10.16509 -10.16495
 Alpha  occ. eigenvalues --   -6.56643  -6.56422  -4.73275  -4.73206  -4.73056
 Alpha  occ. eigenvalues --   -4.72981  -4.72927  -4.72702  -3.00176  -1.85297
 Alpha  occ. eigenvalues --   -1.83633  -1.83120  -1.07467  -0.95851  -0.87895
 Alpha  occ. eigenvalues --   -0.87330  -0.82069  -0.81421  -0.80249  -0.79904
 Alpha  occ. eigenvalues --   -0.79279  -0.79057  -0.73522  -0.69905  -0.67941
 Alpha  occ. eigenvalues --   -0.67718  -0.67419  -0.67163  -0.66958  -0.66622
 Alpha  occ. eigenvalues --   -0.66506  -0.66241  -0.63921  -0.62844  -0.59761
 Alpha  occ. eigenvalues --   -0.59526  -0.54009  -0.53744  -0.53686  -0.51479
 Alpha  occ. eigenvalues --   -0.51315  -0.50179  -0.49478  -0.46794  -0.46646
 Alpha  occ. eigenvalues --   -0.45810  -0.45045  -0.44486  -0.44422  -0.44299
 Alpha  occ. eigenvalues --   -0.44093  -0.43916  -0.43593  -0.43303  -0.42595
 Alpha  occ. eigenvalues --   -0.42548  -0.42325  -0.42047  -0.41920  -0.41805
 Alpha  occ. eigenvalues --   -0.41495  -0.41140  -0.40424  -0.39826  -0.39105
 Alpha  occ. eigenvalues --   -0.38861  -0.38769  -0.38258  -0.37605  -0.37484
 Alpha  occ. eigenvalues --   -0.37152  -0.37135  -0.37055  -0.36830  -0.36686
 Alpha  occ. eigenvalues --   -0.35953  -0.35603  -0.35532  -0.35435  -0.34568
 Alpha  occ. eigenvalues --   -0.34251  -0.33802  -0.33570  -0.32919  -0.32595
 Alpha  occ. eigenvalues --   -0.32297  -0.32077  -0.31977  -0.31504  -0.31203
 Alpha  occ. eigenvalues --   -0.30547  -0.30246  -0.29599  -0.29121  -0.28763
 Alpha  occ. eigenvalues --   -0.26864  -0.25771  -0.25482  -0.25387  -0.23929
 Alpha  occ. eigenvalues --   -0.22316  -0.19943  -0.17296
 Alpha virt. eigenvalues --   -0.04454  -0.02469   0.00473   0.01486   0.01659
 Alpha virt. eigenvalues --    0.02770   0.05148   0.06108   0.06370   0.06585
 Alpha virt. eigenvalues --    0.07335   0.07957   0.08202   0.08392   0.08510
 Alpha virt. eigenvalues --    0.08643   0.09398   0.09875   0.10017   0.10247
 Alpha virt. eigenvalues --    0.10610   0.11092   0.11292   0.11555   0.11902
 Alpha virt. eigenvalues --    0.12352   0.12763   0.12947   0.13440   0.13650
 Alpha virt. eigenvalues --    0.13785   0.14259   0.14488   0.14574   0.14716
 Alpha virt. eigenvalues --    0.15062   0.15435   0.15726   0.16544   0.16724
 Alpha virt. eigenvalues --    0.16895   0.17001   0.17440   0.17622   0.17742
 Alpha virt. eigenvalues --    0.17839   0.18312   0.18443   0.18905   0.19083
 Alpha virt. eigenvalues --    0.19905   0.20076   0.20519   0.21074   0.21236
 Alpha virt. eigenvalues --    0.21338   0.21594   0.21836   0.21972   0.22335
 Alpha virt. eigenvalues --    0.22721   0.23005   0.23807   0.24365   0.24645
 Alpha virt. eigenvalues --    0.25291   0.25523   0.26057   0.26242   0.26620
 Alpha virt. eigenvalues --    0.26958   0.27394   0.28707   0.29433   0.29787
 Alpha virt. eigenvalues --    0.30630   0.31113   0.31647   0.32611   0.33503
 Alpha virt. eigenvalues --    0.35800   0.35928   0.36761   0.38068   0.39101
 Alpha virt. eigenvalues --    0.39780   0.40392   0.40584   0.41069   0.41528
 Alpha virt. eigenvalues --    0.42647   0.43092   0.43214   0.43479   0.44005
 Alpha virt. eigenvalues --    0.44487   0.44940   0.45056   0.45545   0.46552
 Alpha virt. eigenvalues --    0.46780   0.47391   0.47557   0.48264   0.49077
 Alpha virt. eigenvalues --    0.50064   0.50173   0.51059   0.51429   0.53339
 Alpha virt. eigenvalues --    0.53640   0.54103   0.54499   0.54638   0.55105
 Alpha virt. eigenvalues --    0.55515   0.56020   0.56383   0.57300   0.57555
 Alpha virt. eigenvalues --    0.57820   0.58520   0.59060   0.59509   0.59705
 Alpha virt. eigenvalues --    0.59930   0.60443   0.60941   0.61052   0.61498
 Alpha virt. eigenvalues --    0.62093   0.62865   0.62952   0.63074   0.63396
 Alpha virt. eigenvalues --    0.63469   0.64068   0.64353   0.64593   0.64811
 Alpha virt. eigenvalues --    0.65101   0.65382   0.65585   0.65738   0.65912
 Alpha virt. eigenvalues --    0.66083   0.66605   0.66665   0.67202   0.67403
 Alpha virt. eigenvalues --    0.67574   0.67883   0.68043   0.68396   0.68620
 Alpha virt. eigenvalues --    0.68755   0.69240   0.69267   0.69607   0.69814
 Alpha virt. eigenvalues --    0.70137   0.70294   0.70424   0.70893   0.71069
 Alpha virt. eigenvalues --    0.71224   0.71544   0.71787   0.71884   0.72257
 Alpha virt. eigenvalues --    0.72957   0.73057   0.73217   0.73516   0.73791
 Alpha virt. eigenvalues --    0.73879   0.74180   0.74494   0.74846   0.75090
 Alpha virt. eigenvalues --    0.75236   0.75759   0.76171   0.76557   0.76748
 Alpha virt. eigenvalues --    0.77631   0.77944   0.78659   0.78758   0.79118
 Alpha virt. eigenvalues --    0.79522   0.80108   0.80513   0.80641   0.80931
 Alpha virt. eigenvalues --    0.81379   0.81485   0.82296   0.82560   0.83009
 Alpha virt. eigenvalues --    0.83320   0.83779   0.84105   0.84173   0.84523
 Alpha virt. eigenvalues --    0.84905   0.85597   0.86326   0.87538   0.88366
 Alpha virt. eigenvalues --    0.89135   0.89643   0.90612   0.91265   0.91873
 Alpha virt. eigenvalues --    0.92412   0.92848   0.92901   0.93626   0.95090
 Alpha virt. eigenvalues --    0.96489   0.98099   0.98598   0.99468   1.00311
 Alpha virt. eigenvalues --    1.01258   1.02186   1.03084   1.03426   1.04569
 Alpha virt. eigenvalues --    1.05393   1.05707   1.06244   1.06808   1.07180
 Alpha virt. eigenvalues --    1.07817   1.08585   1.09764   1.10896   1.11403
 Alpha virt. eigenvalues --    1.12493   1.12638   1.14913   1.15690   1.15832
 Alpha virt. eigenvalues --    1.16431   1.17623   1.18700   1.19146   1.19692
 Alpha virt. eigenvalues --    1.20691   1.21099   1.21651   1.22330   1.22899
 Alpha virt. eigenvalues --    1.23256   1.24105   1.24324   1.24434   1.25349
 Alpha virt. eigenvalues --    1.25951   1.27003   1.27867   1.28236   1.28988
 Alpha virt. eigenvalues --    1.29333   1.30268   1.30936   1.31525   1.32602
 Alpha virt. eigenvalues --    1.33492   1.34158   1.35454   1.36093   1.38165
 Alpha virt. eigenvalues --    1.40484   1.41108   1.43255   1.43538   1.45503
 Alpha virt. eigenvalues --    1.47495   1.48710   1.50017   1.50802   1.51353
 Alpha virt. eigenvalues --    1.51932   1.52808   1.53137   1.53839   1.54070
 Alpha virt. eigenvalues --    1.54793   1.55069   1.55440   1.55730   1.55924
 Alpha virt. eigenvalues --    1.56179   1.56659   1.57100   1.57231   1.57649
 Alpha virt. eigenvalues --    1.58037   1.58456   1.58702   1.59380   1.59846
 Alpha virt. eigenvalues --    1.60078   1.60246   1.60960   1.61465   1.61699
 Alpha virt. eigenvalues --    1.62182   1.63331   1.63906   1.64667   1.65112
 Alpha virt. eigenvalues --    1.65447   1.66313   1.66835   1.67649   1.68616
 Alpha virt. eigenvalues --    1.69037   1.69241   1.70462   1.71505   1.72491
 Alpha virt. eigenvalues --    1.72646   1.73465   1.74227   1.74676   1.75560
 Alpha virt. eigenvalues --    1.76118   1.76623   1.77135   1.77702   1.77936
 Alpha virt. eigenvalues --    1.78155   1.78352   1.79057   1.79419   1.79755
 Alpha virt. eigenvalues --    1.79953   1.81096   1.81279   1.81542   1.81563
 Alpha virt. eigenvalues --    1.82581   1.82843   1.83116   1.83551   1.84016
 Alpha virt. eigenvalues --    1.84311   1.84622   1.84775   1.85293   1.85818
 Alpha virt. eigenvalues --    1.86066   1.86512   1.87160   1.87325   1.87606
 Alpha virt. eigenvalues --    1.87962   1.88630   1.88871   1.89995   1.90344
 Alpha virt. eigenvalues --    1.90759   1.91411   1.91438   1.91791   1.92639
 Alpha virt. eigenvalues --    1.93077   1.93402   1.93642   1.94071   1.94185
 Alpha virt. eigenvalues --    1.94242   1.94680   1.95321   1.95408   1.96178
 Alpha virt. eigenvalues --    1.96337   1.96902   1.97065   1.97926   1.98157
 Alpha virt. eigenvalues --    1.98505   1.98877   1.99483   1.99690   2.00609
 Alpha virt. eigenvalues --    2.00956   2.01302   2.01866   2.02439   2.02789
 Alpha virt. eigenvalues --    2.03105   2.03284   2.03606   2.04301   2.04765
 Alpha virt. eigenvalues --    2.05229   2.07250   2.08383   2.09380   2.09638
 Alpha virt. eigenvalues --    2.11720   2.13486   2.14089   2.15985   2.16369
 Alpha virt. eigenvalues --    2.16909   2.17136   2.17640   2.17922   2.18180
 Alpha virt. eigenvalues --    2.18426   2.18739   2.19275   2.19800   2.20210
 Alpha virt. eigenvalues --    2.20662   2.21393   2.21906   2.22134   2.22775
 Alpha virt. eigenvalues --    2.23047   2.23832   2.24179   2.24762   2.25306
 Alpha virt. eigenvalues --    2.26429   2.27132   2.28687   2.30063   2.30589
 Alpha virt. eigenvalues --    2.32664   2.35168   2.36801   2.37991   2.38762
 Alpha virt. eigenvalues --    2.39421   2.39645   2.40406   2.40878   2.41206
 Alpha virt. eigenvalues --    2.42030   2.42202   2.42521   2.42627   2.43210
 Alpha virt. eigenvalues --    2.43574   2.44522   2.45565   2.45963   2.47107
 Alpha virt. eigenvalues --    2.48084   2.49030   2.49440   2.51312   2.51646
 Alpha virt. eigenvalues --    2.55261   2.55815   2.56052   2.56131   2.56368
 Alpha virt. eigenvalues --    2.56531   2.56742   2.57336   2.57585   2.59283
 Alpha virt. eigenvalues --    2.61468   2.62500   2.62731   2.62963   2.63195
 Alpha virt. eigenvalues --    2.63381   2.63715   2.63830   2.64220   2.64570
 Alpha virt. eigenvalues --    2.64638   2.64844   2.65311   2.65333   2.65624
 Alpha virt. eigenvalues --    2.66806   2.68616   2.72817   2.73048   2.73213
 Alpha virt. eigenvalues --    2.74115   2.74240   2.77050   2.78446   2.80466
 Alpha virt. eigenvalues --    2.82863   2.85285   2.85516   2.86959   2.87644
 Alpha virt. eigenvalues --    2.87698   2.88100   2.88913   2.89309   2.89429
 Alpha virt. eigenvalues --    2.90099   2.91200   2.91215   2.91414   2.92493
 Alpha virt. eigenvalues --    2.92912   2.93676   2.94041   2.94286   2.94832
 Alpha virt. eigenvalues --    2.95071   2.95624   2.96276   2.96838   2.96948
 Alpha virt. eigenvalues --    2.97190   2.97633   2.98685   2.99153   2.99654
 Alpha virt. eigenvalues --    3.00393   3.02360   3.02805   3.03409   3.05004
 Alpha virt. eigenvalues --    3.06524   3.06885   3.07181   3.07983   3.08838
 Alpha virt. eigenvalues --    3.09207   3.09356   3.09956   3.10511   3.12269
 Alpha virt. eigenvalues --    3.12729   3.12998   3.14084   3.19108   3.19720
 Alpha virt. eigenvalues --    3.33634   3.60219   3.73504   3.87977   3.89207
 Alpha virt. eigenvalues --   45.38703
          Condensed to atoms (all electrons):
 Mulliken charges:
               1
     1  O   -0.494099
     2  P    0.331589
     3  O   -0.171893
     4  N   -0.187058
     5  C    0.022464
     6  H    0.057536
     7  H    0.090693
     8  O   -0.502840
     9  P    0.346003
    10  C    0.015687
    11  C   -0.012770
    12  H    0.012532
    13  C    0.077286
    14  H    0.025908
    15  C   -0.012875
    16  H    0.012648
    17  C    0.008640
    18  C    0.022949
    19  H    0.056710
    20  H    0.087774
    21  C   -0.386900
    22  C   -0.393375
    23  C    0.068839
    24  H    0.009631
    25  H    0.022527
    26  H    0.032023
    27  C    0.067388
    28  H    0.014175
    29  H    0.028567
    30  H    0.032716
    31  Ru  -0.269021
    32  C    0.083302
    33  H    0.012500
    34  H    0.008728
    35  H    0.021445
    36  C    0.075798
    37  H    0.014164
    38  H    0.012217
    39  H    0.036448
    40  C    0.068225
    41  H    0.009233
    42  H   -0.001469
    43  H    0.017373
    44  C    0.083992
    45  H    0.008209
    46  H    0.025748
    47  H    0.031877
    48  C   -0.397187
    49  C   -0.376675
    50  C    0.064766
    51  H    0.011822
    52  H    0.029548
    53  H    0.034479
    54  C    0.081127
    55  H    0.010727
    56  H    0.008174
    57  H    0.020499
    58  C    0.106308
    59  H    0.003091
    60  H    0.016740
    61  H    0.029348
    62  C    0.079931
    63  H    0.004138
    64  H    0.003990
    65  H    0.007100
    66  C    0.063111
    67  H    0.006761
    68  H    0.040568
    69  H    0.014751
    70  C    0.082669
    71  H    0.006281
    72  H    0.026426
    73  H    0.028619
    74  C    0.106865
    75  H    0.182464
    76  H    0.182315
 Sum of Mulliken charges =  -0.00000
 Mulliken charges with hydrogens summed into heavy atoms:
               1
     1  O   -0.311784
     2  P    0.331589
     3  O   -0.171893
     4  N   -0.187058
     5  C    0.170693
     8  O   -0.320376
     9  P    0.346003
    10  C    0.015687
    11  C   -0.000238
    13  C    0.103194
    15  C   -0.000227
    17  C    0.008640
    18  C    0.167433
    21  C   -0.386900
    22  C   -0.393375
    23  C    0.133020
    27  C    0.142847
    31  Ru  -0.269021
    32  C    0.125975
    36  C    0.138627
    40  C    0.093362
    44  C    0.149826
    48  C   -0.397187
    49  C   -0.376675
    50  C    0.140615
    54  C    0.120528
    58  C    0.155487
    62  C    0.095159
    66  C    0.125190
    70  C    0.143995
    74  C    0.106865
 Electronic spatial extent (au):  <R**2>=          13387.4620
 Charge=             -0.0000 electrons
 Dipole moment (field-independent basis, Debye):
    X=             -2.5791    Y=              7.5011    Z=              0.0912  Tot=              7.9327
 Quadrupole moment (field-independent basis, Debye-Ang):
   XX=           -176.8408   YY=           -209.9427   ZZ=           -234.1782
   XY=              2.7373   XZ=             -4.2010   YZ=             -1.6617
 Traceless Quadrupole moment (field-independent basis, Debye-Ang):
   XX=             30.1465   YY=             -2.9555   ZZ=            -27.1910
   XY=              2.7373   XZ=             -4.2010   YZ=             -1.6617
 Octapole moment (field-independent basis, Debye-Ang**2):
  XXX=            -13.9513  YYY=            123.6411  ZZZ=             -0.4576  XYY=             -4.2512
  XXY=             -9.3901  XXZ=             -3.7829  XZZ=            -18.6179  YZZ=            -21.7561
  YYZ=              4.2031  XYZ=             -5.1549
 Hexadecapole moment (field-independent basis, Debye-Ang**3):
 XXXX=         -10244.3079 YYYY=          -4221.9859 ZZZZ=          -3144.7547 XXXY=             16.2981
 XXXZ=            -28.0766 YYYX=              7.6056 YYYZ=             -9.3405 ZZZX=             10.7413
 ZZZY=            -12.4636 XXYY=          -2411.9199 XXZZ=          -2218.1283 YYZZ=          -1280.5648
 XXYZ=              1.6690 YYXZ=            -71.2711 ZZXY=             19.2185
 N-N= 4.528577015003D+03 E-N=-1.371445413877D+04  KE= 1.921535011548D+03
 1\1\GINC-NODE031\SP\RB3LYP TD-FC\def2SVP\C24H45N1O3P2Ru1\DO57CIG\03-No
 v-2023\0\\# td=(singlets,nstates=50,conver=3) b3lyp scrf=(smd,solvent=
 water,checkpoint) def2svp empiricaldispersion=gd3bj int=ultrafine gues
 s=read geom=check\\Opt_Ru_DFT\\0,1\O,0,4.419035884,4.8820878492,10.508
 8268422\P,0,6.7492419575,5.3573906467,8.2177382501\O,0,6.8443380415,7.
 6757332572,11.6222668577\N,0,6.3299174748,2.8764758951,9.8058827289\C,
 0,7.4026756687,3.6788623602,7.7455627531\H,0,7.3041997032,3.4701915615
 ,6.6716259296\H,0,8.4778642023,3.7157116539,7.9796240805\O,0,8.6029253
 659,4.485623934,10.509582246\P,0,6.2633638984,3.7410363327,12.65183489
 25\C,0,6.7668124865,2.581381379,8.5601687327\C,0,6.6264568205,1.288810
 9538,8.0476104159\H,0,6.9816953658,1.0681270489,7.0404081496\C,0,6.026
 4282648,0.306168094,8.8334297876\H,0,5.9078520719,-0.7095778935,8.4499
 187364\C,0,5.5755855602,0.6321658037,10.111736295\H,0,5.101475846,-0.1
 136243925,10.7507997208\C,0,5.7381263587,1.9381960465,10.5808262108\C,
 0,5.2555186855,2.3411614104,11.9513977785\H,0,5.2096622559,1.469401224
 3,12.6181953351\H,0,4.2356803698,2.745510728,11.8591716945\C,0,8.04640
 30352,6.5972043194,7.5679506301\C,0,5.1494230872,5.5319172468,7.187879
 2918\C,0,9.2179927552,6.6967536254,8.5563328247\H,0,9.9343459638,7.436
 9617173,8.1634167569\H,0,9.749414049,5.7435142896,8.6670101713\H,0,8.8
 90505922,7.0472602001,9.5453513348\C,0,7.400920203,7.9894858456,7.4815
 21266\H,0,8.1919240426,8.7349538789,7.2982497239\H,0,6.8984017373,8.25
 99840948,8.4233587887\H,0,6.6775539633,8.0712001124,6.6611189669\Ru,0,
 6.5286916434,4.9034835955,10.562020176\C,0,8.625147108,6.1763291186,6.
 2076059618\H,0,9.347354349,6.9437346683,5.8814976815\H,0,7.8671006501,
 6.0814700123,5.4232369516\H,0,9.1712728916,5.2243730164,6.2798277517\C
 ,0,4.3645768339,6.7685219413,7.6749473948\H,0,3.3026213213,6.659955785
 ,7.4015234136\H,0,4.7305021581,7.6929502768,7.2120838415\H,0,4.4221550
 49,6.9147853165,8.7640728351\C,0,4.3133889633,4.2602901524,7.436997727
 1\H,0,3.3398511533,4.3834836706,6.9344314317\H,0,4.1359622546,4.098745
 5585,8.5069434429\H,0,4.7898742818,3.3670841736,7.0096510553\C,0,5.376
 5525178,5.6397743469,5.6738710798\H,0,4.3932299713,5.6186902813,5.1740
 862861\H,0,5.9619034903,4.7939059399,5.283703781\H,0,5.8694748118,6.57
 53953267,5.3815572496\C,0,5.1989909795,4.4699836531,14.0596068585\C,0,
 7.7873090642,2.8644089407,13.4030275403\C,0,6.0953779543,5.3127586473,
 14.9811930334\H,0,5.4532579138,5.870635801,15.6824588128\H,0,6.6799622
 1,6.0488370183,14.4073276748\H,0,6.7858338805,4.706523613,15.580571500
 7\C,0,4.4574688397,3.3858181817,14.8579537109\H,0,3.8632007971,3.87738
 51286,15.6467275028\H,0,5.1262538,2.6701711864,15.3468096892\H,0,3.755
 357132,2.826819776,14.2219618088\C,0,4.1412506571,5.4133112464,13.4681
 931131\H,0,3.5542196556,5.8311372075,14.3031055075\H,0,3.4555724004,4.
 8958545684,12.7882131654\H,0,4.5963585202,6.2484433356,12.9198254729\C
 ,0,8.8711379364,3.9130975304,13.7106115303\H,0,9.7833694471,3.39363776
 24,14.050024829\H,0,8.5728634807,4.6082881027,14.5043406283\H,0,9.1174
 214767,4.4859808002,12.8074309713\C,0,8.331833855,1.8848747954,12.3451
 824327\H,0,9.2823475117,1.4695591338,12.7198569955\H,0,8.5316249511,2.
 3804059892,11.3892381379\H,0,7.6511196826,1.0383108537,12.179657387\C,
 0,7.4775539464,2.0464975468,14.6639943416\H,0,8.3845391357,1.482754270
 1,14.9409028242\H,0,6.6746220824,1.3136798248,14.4947479699\H,0,7.2088
 261441,2.6718539326,15.5245162548\C,0,6.7122717911,6.5881831218,11.203
 7560095\H,0,9.0568290495,5.333525897,10.492526874\H,0,4.1327615358,5.5
 56950391,9.8858554693\\Version=ES64L-G16RevB.01\State=1-A\HF=-1998.998
 5913\RMSD=3.670e-09\PG=C01 [X(C24H45N1O3P2Ru1)]\\@


 SLITHERY-DITHERY
 FRIEDRICH A. KEKULE
 DREAMT ON A BUS OF THINGS
 FREUD WOULD THINK KEEN.
 MOST OF THE TIME THEY WERE
 HERPETOLOGICAL
 BITING THEIR TAILS IN THE
 SHAPE OF BENZENE.
 Job cpu time:       0 days 20 hours 36 minutes 30.7 seconds.
 Elapsed time:       0 days  0 hours 51 minutes 38.0 seconds.
 File lengths (MBytes):  RWF=  11278 Int=      0 D2E=      0 Chk=    801 Scr=      1
 Normal termination of Gaussian 16 at Fri Nov  3 12:33:54 2023.
