 Entering Gaussian System, Link 0=g16
 Input=A_Ru_TDDFT_B3LYP_def2SVP_smd_water_Interpol_Geom_1.1_T_T_10.gjf
 Output=A_Ru_TDDFT_B3LYP_def2SVP_smd_water_Interpol_Geom_1.1_T_T_10.log
 Initial command:
 /cluster/apps/gaussian/g16_c02/g16/l1.exe "/beegfs/do57cig/gauss2132147/Gau-1552764.inp" -scrdir="/beegfs/do57cig/gauss2132147/"
 Default CPUs for threads: 0-23
 Default is to use a total of  24 processors:
                               24 via shared-memory
                                1 via Linda
 Entering Link 1 = /cluster/apps/gaussian/g16_c02/g16/l1.exe PID=   1552765.
  
 Copyright (c) 1988-2021, Gaussian, Inc.  All Rights Reserved.
  
 This is part of the Gaussian(R) 16 program.  It is based on
 the Gaussian(R) 09 system (copyright 2009, Gaussian, Inc.),
 the Gaussian(R) 03 system (copyright 2003, Gaussian, Inc.),
 the Gaussian(R) 98 system (copyright 1998, Gaussian, Inc.),
 the Gaussian(R) 94 system (copyright 1995, Gaussian, Inc.),
 the Gaussian 92(TM) system (copyright 1992, Gaussian, Inc.),
 the Gaussian 90(TM) system (copyright 1990, Gaussian, Inc.),
 the Gaussian 88(TM) system (copyright 1988, Gaussian, Inc.),
 the Gaussian 86(TM) system (copyright 1986, Carnegie Mellon
 University), and the Gaussian 82(TM) system (copyright 1983,
 Carnegie Mellon University). Gaussian is a federally registered
 trademark of Gaussian, Inc.
  
 This software contains proprietary and confidential information,
 including trade secrets, belonging to Gaussian, Inc.
  
 This software is provided under written license and may be
 used, copied, transmitted, or stored only in accord with that
 written license.
  
 The following legend is applicable only to US Government
 contracts under FAR:
  
                    RESTRICTED RIGHTS LEGEND
  
 Use, reproduction and disclosure by the US Government is
 subject to restrictions as set forth in subparagraphs (a)
 and (c) of the Commercial Computer Software - Restricted
 Rights clause in FAR 52.227-19.
  
 Gaussian, Inc.
 340 Quinnipiac St., Bldg. 40, Wallingford CT 06492
  
  
 ---------------------------------------------------------------
 Warning -- This program may not be used in any manner that
 competes with the business of Gaussian, Inc. or will provide
 assistance to any competitor of Gaussian, Inc.  The licensee
 of this program is prohibited from giving any competitor of
 Gaussian, Inc. access to this program.  By using this program,
 the user acknowledges that Gaussian, Inc. is engaged in the
 business of creating and licensing software in the field of
 computational chemistry and represents and warrants to the
 licensee that it is not a competitor of Gaussian, Inc. and that
 it will not use this program in any manner prohibited above.
 ---------------------------------------------------------------
  

 Cite this work as:
 Gaussian 16, Revision C.02,
 M. J. Frisch, G. W. Trucks, H. B. Schlegel, G. E. Scuseria, 
 M. A. Robb, J. R. Cheeseman, G. Scalmani, V. Barone, 
 G. A. Petersson, H. Nakatsuji, X. Li, M. Caricato, A. V. Marenich, 
 J. Bloino, B. G. Janesko, R. Gomperts, B. Mennucci, H. P. Hratchian, 
 J. V. Ortiz, A. F. Izmaylov, J. L. Sonnenberg, D. Williams-Young, 
 F. Ding, F. Lipparini, F. Egidi, J. Goings, B. Peng, A. Petrone, 
 T. Henderson, D. Ranasinghe, V. G. Zakrzewski, J. Gao, N. Rega, 
 G. Zheng, W. Liang, M. Hada, M. Ehara, K. Toyota, R. Fukuda, 
 J. Hasegawa, M. Ishida, T. Nakajima, Y. Honda, O. Kitao, H. Nakai, 
 T. Vreven, K. Throssell, J. A. Montgomery, Jr., J. E. Peralta, 
 F. Ogliaro, M. J. Bearpark, J. J. Heyd, E. N. Brothers, K. N. Kudin, 
 V. N. Staroverov, T. A. Keith, R. Kobayashi, J. Normand, 
 K. Raghavachari, A. P. Rendell, J. C. Burant, S. S. Iyengar, 
 J. Tomasi, M. Cossi, J. M. Millam, M. Klene, C. Adamo, R. Cammi, 
 J. W. Ochterski, R. L. Martin, K. Morokuma, O. Farkas, 
 J. B. Foresman, and D. J. Fox, Gaussian, Inc., Wallingford CT, 2019.
 
 ******************************************
 Gaussian 16:  ES64L-G16RevC.02  7-Dec-2021
                20-Sep-2024 
 ******************************************
 %chk=A_Ru_TDDFT_B3LYP_def2SVP_smd_water_Interpol_Geom_1.1_T_T_10.chk
 SetSPE:  set environment variable "OMP_PROC_BIND" = "true"
 SetSPE:  set environment variable "OMP_PLACES" = "{0},{1},{2},{3},{4},{5},{6},{7},{8},{9},{10},{11},{12},{13},{14},{15},{16},{17},{18},{19},{20},{21},{22},{23}"
 ----------------------------------------------------------------------
 # td=(triplets,nstates=5,conver=3) b3lyp scrf=(smd,solvent=water) def2
 svp empiricaldispersion=gd3bj int=ultrafine scf=xqc
 ----------------------------------------------------------------------
 1/38=1,172=1/1;
 2/12=2,17=6,18=5,40=1/2;
 3/5=43,7=101,11=9,25=1,30=1,70=32201,72=1,74=-5,75=-5,124=41/1,2,3,8;
 4//1;
 5/5=2,8=3,13=1,38=5,53=1/2,8;
 8/6=1,10=1,108=5/1;
 9/9=3,41=5,42=1,48=3,70=2/14;
 6/7=2,8=2,9=2,10=2/1;
 99/5=1,9=1/99;
 -----------------------------------------------------------
 A_Ru_TDDFT_B3LYP_def2SVP_smd_water_Interpol_Geom_1.1_T_T_10
 -----------------------------------------------------------
 Symbolic Z-matrix:
 Charge =  0 Multiplicity = 3
 P                     2.40145  -0.19941  -0.11654 
 N                    -0.04171   1.4571   -0.15991 
 C                     2.17684   1.276    -1.21094 
 H                     3.1056    1.85084  -1.32393 
 H                     1.92066   0.83985  -2.19163 
 O                    -0.12699  -0.95352  -1.98534 
 P                    -2.44023  -0.13389   0.13622 
 C                     1.064     2.13082  -0.68118 
 C                     1.16284   3.50648  -0.65037 
 H                     2.05769   3.96926  -1.07394 
 C                     0.14264   4.30065  -0.06992 
 H                     0.21171   5.38852  -0.03753 
 C                    -0.96831   3.60792   0.47751 
 H                    -1.79895   4.15513   0.93065 
 C                    -1.0404    2.23162   0.43061 
 C                    -2.23445   1.49331   0.97971 
 H                    -3.14556   2.10445   0.91791 
 H                    -2.08373   1.24192   2.04434 
 Ru                   -0.03515  -0.73847   0.09003 
 H                     0.61429  -1.51064  -2.24393 
 C                    -3.271     0.23643  -1.53875 
 C                    -3.60872  -1.1381    1.26145 
 C                     3.54405  -1.37821  -1.09399 
 C                     3.27208   0.40056   1.46936 
 C                     2.47112   1.58586   2.04541 
 H                     2.56335   2.47721   1.41353 
 H                     1.40413   1.37844   2.17738 
 H                     2.89041   1.82746   3.03536 
 C                     3.32143  -0.74598   2.49979 
 H                     3.47619  -0.31698   3.50284 
 H                     2.39903  -1.33896   2.53091 
 H                     4.1522   -1.4332    2.30465 
 C                     4.6974    0.90769   1.20116 
 H                     5.08756   1.35      2.13297 
 H                     5.38265   0.10177   0.91037 
 H                     4.7179    1.69025   0.42834 
 C                     4.66119  -0.59932  -1.80882 
 H                     5.30073  -0.03227  -1.12407 
 H                     5.30033  -1.32506  -2.33908 
 H                     4.25547   0.09141  -2.56171 
 C                     4.13806  -2.43903  -0.15678 
 H                     4.63524  -3.20763  -0.77059 
 H                     4.89212  -2.02318   0.52235 
 H                     3.36013  -2.93856   0.44032 
 C                     2.72672  -2.10785  -2.16923 
 H                     1.9325   -2.72701  -1.72912 
 H                     2.30148  -1.41183  -2.90613 
 H                     3.40345  -2.7824   -2.71791 
 C                    -3.25746  -1.02313  -2.4223 
 H                    -3.59332  -0.74216  -3.43474 
 H                    -2.24326  -1.43534  -2.49505 
 H                    -3.93781  -1.80005  -2.05524 
 C                    -4.71208   0.73981  -1.37079 
 H                    -5.07924   1.06003  -2.36029 
 H                    -5.39139  -0.04201  -1.00787 
 H                    -4.77673   1.60801  -0.69809 
 C                    -2.46269   1.3455   -2.23773 
 H                    -2.51625   2.29805  -1.69311 
 H                    -1.40971   1.07323  -2.36082 
 H                    -2.90245   1.50576  -3.23584 
 C                    -2.80979  -1.67355   2.45782 
 H                    -1.99564  -2.34168   2.14749 
 H                    -2.39573  -0.86449   3.07248 
 H                    -3.49696  -2.25316   3.09547 
 C                    -4.74786  -0.26559   1.81623 
 H                    -5.3879    0.15865   1.0356 
 H                    -5.38227  -0.89711   2.46051 
 H                    -4.36441   0.55546   2.43885 
 C                    -4.17589  -2.3389    0.49114 
 H                    -4.69788  -2.99721   1.20454 
 H                    -4.90333  -2.03969  -0.27399 
 H                    -3.37965  -2.92825   0.01151 
 O                    -0.18847  -2.72553   0.07132 
 C                     0.02675  -0.63669   1.92541 
 H                    -0.25066  -2.87839  -0.88841 
 O                     0.08262  -0.58099   3.0841 
 
 Stoichiometry    C24H45NO3P2Ru(3)
 Framework group  C1[X(C24H45NO3P2Ru)]
 Deg. of freedom   222
 Full point group                 C1      NOp   1
 Largest Abelian subgroup         C1      NOp   1
 Largest concise Abelian subgroup C1      NOp   1
                         Standard orientation:                         
 ---------------------------------------------------------------------
 Center     Atomic      Atomic             Coordinates (Angstroms)
 Number     Number       Type             X           Y           Z
 ---------------------------------------------------------------------
      1         15           0        2.413258   -0.159704   -0.181655
      2          7           0       -0.031510    1.494727   -0.211437
      3          6           0        2.188607    1.326531   -1.261298
      4          1           0        3.116932    1.903417   -1.367204
      5          1           0        1.934158    0.900120   -2.246715
      6          8           0       -0.111950   -0.897292   -2.061393
      7         15           0       -2.428815   -0.101579    0.065305
      8          6           0        1.074202    2.174810   -0.724359
      9          6           0        1.171614    3.550191   -0.679431
     10          1           0        2.066554    4.018144   -1.097082
     11          6           0        0.149849    4.337396   -0.092291
     12          1           0        0.217778    5.424948   -0.048751
     13          6           0       -0.961122    3.638028    0.446589
     14          1           0       -1.792914    4.179774    0.904163
     15          6           0       -1.031763    2.262210    0.385604
     16          6           0       -2.225791    1.517159    0.925570
     17          1           0       -3.137436    2.127995    0.868780
     18          1           0       -2.076221    1.255108    1.987789
     19         44           0       -0.023073   -0.703266    0.016178
     20          1           0        0.630236   -1.451008   -2.324650
     21          6           0       -3.257744    0.284930   -1.606914
     22          6           0       -3.597775   -1.118342    1.178716
     23          6           0        3.558331   -1.327367   -1.169527
     24          6           0        3.281181    0.424975    1.411417
     25          6           0        2.478267    1.603554    1.998427
     26          1           0        2.570431    2.501380    1.375762
     27          1           0        1.411320    1.393738    2.126856
     28          1           0        2.896007    1.835489    2.991335
     29          6           0        3.330334   -0.731935    2.430199
     30          1           0        3.483329   -0.313005    3.437768
     31          1           0        2.408485   -1.326125    2.454059
     32          1           0        4.162047   -1.416311    2.229192
     33          6           0        4.706350    0.936225    1.150284
     34          1           0        5.094830    1.369419    2.087063
     35          1           0        5.392791    0.133983    0.852232
     36          1           0        4.727081    1.726618    0.385493
     37          6           0        4.675628   -0.540139   -1.874911
     38          1           0        5.313694    0.020558   -1.183577
     39          1           0        5.316208   -1.259806   -2.411674
     40          1           0        4.270206    0.157814   -2.621274
     41          6           0        4.152172   -2.397071   -0.242354
     42          1           0        4.650942   -3.158896   -0.863291
     43          1           0        4.904920   -1.987399    0.441964
     44          1           0        3.373958   -2.903422    0.348600
     45          6           0        2.743159   -2.046852   -2.253217
     46          1           0        1.948990   -2.671244   -1.820475
     47          1           0        2.318198   -1.343798   -2.983564
     48          1           0        3.421301   -2.715106   -2.807822
     49          6           0       -3.241773   -0.965565   -2.503211
     50          1           0       -3.576571   -0.674648   -3.513185
     51          1           0       -2.227057   -1.376005   -2.578799
     52          1           0       -3.921823   -1.746857   -2.144970
     53          6           0       -4.699553    0.785136   -1.435766
     54          1           0       -5.065730    1.115046   -2.422445
     55          1           0       -5.378558   -0.001009   -1.081719
     56          1           0       -4.765972    1.646387   -0.754360
     57          6           0       -2.449637    1.401852   -2.293502
     58          1           0       -2.504869    2.348767   -1.739302
     59          1           0       -1.396213    1.131893   -2.417954
     60          1           0       -2.888239    1.571814   -3.290517
     61          6           0       -2.799887   -1.665139    2.370641
     62          1           0       -1.984655   -2.329261    2.054611
     63          1           0       -2.387458   -0.861953    2.994046
     64          1           0       -3.487317   -2.251882    3.001448
     65          6           0       -4.738530   -0.252656    1.740821
     66          1           0       -5.377968    0.178869    0.963688
     67          1           0       -5.373157   -0.891322    2.377801
     68          1           0       -4.356732    0.562404    2.372267
     69          6           0       -4.162717   -2.311806    0.395475
     70          1           0       -4.684982   -2.977862    1.101453
     71          1           0       -4.889449   -2.005555   -0.367538
     72          1           0       -3.365252   -2.895462   -0.089059
     73          8           0       -0.174356   -2.690181   -0.022946
     74          6           0        0.036306   -0.620092    1.852575
     75          1           0       -0.235128   -2.833340   -0.984263
     76          8           0        0.090582   -0.576122    3.011850
 ---------------------------------------------------------------------
 Rotational constants (GHZ):           0.1977407           0.1041051           0.0963761
 Standard basis: def2SVP (5D, 7F)
 There are   719 symmetry adapted cartesian basis functions of A   symmetry.
 There are   684 symmetry adapted basis functions of A   symmetry.
   684 basis functions,  1154 primitive gaussians,   719 cartesian basis functions
   134 alpha electrons      132 beta electrons
       nuclear repulsion energy      4523.0685834660 Hartrees.
 NAtoms=   76 NActive=   76 NUniq=   76 SFac= 1.00D+00 NAtFMM=   60 NAOKFM=T Big=T
 Integral buffers will be    131072 words long.
 Regular integral format.
 Two-electron integral symmetry is turned on.
 Nuclear repulsion after empirical dispersion term =     4522.8473331423 Hartrees.
 ------------------------------------------------------------------------------
 Polarizable Continuum Model (PCM)
 =================================
 Model                : PCM.
 Atomic radii         : SMD-Coulomb.
 Polarization charges : Total charges.
 Charge compensation  : None.
 Solution method      : On-the-fly selection.
 Cavity type          : VdW (van der Waals Surface) (Alpha=1.000).
 Cavity algorithm     : GePol (No added spheres)
                        Default sphere list used, NSphG=   76.
                        Lebedev-Laikov grids with approx.  5.0 points / Ang**2.
                        Smoothing algorithm: York/Karplus (Gamma=1.0000).
                        Polarization charges: spherical gaussians, with
                                              point-specific exponents (IZeta= 3).
                        Self-potential: point-specific (ISelfS= 7).
                        Self-field    : sphere-specific E.n sum rule (ISelfD= 2).
 Solvent              : Water, Eps=  78.355300 Eps(inf)=   1.777849
 ------------------------------------------------------------------------------
 ------------------------------------------------------------------------------
 Atomic radii for non-electrostatic terms: SMD-CDS.
 ------------------------------------------------------------------------------
 Nuclear repulsion after PCM non-electrostatic terms =     4522.8659799026 Hartrees.
 One-electron integrals computed using PRISM.
   1 Symmetry operations used in ECPInt.
 ECPInt:  NShTT=   54615 NPrTT=  190596 LenC2=   48087 LenP2D=  113822.
 LDataN:  DoStor=T MaxTD1= 7 Len=  274
 NBasis=   684 RedAO= T EigKep=  4.87D-04  NBF=   684
 NBsUse=   684 1.00D-06 EigRej= -1.00D+00 NBFU=   684
 Defaulting to unpruned grid for atomic number  44.
 ExpMin= 3.92D-02 ExpMax= 8.00D+03 ExpMxC= 1.20D+03 IAcc=3 IRadAn=         5 AccDes= 0.00D+00
 Harris functional with IExCor=  402 and IRadAn=       5 diagonalized for initial guess.
 HarFok:  IExCor=  402 AccDes= 0.00D+00 IRadAn=         5 IDoV= 1 UseB2=F ITyADJ=14
 ICtDFT=  3500011 ScaDFX=  1.000000  1.000000  1.000000  1.000000
 Defaulting to unpruned grid for atomic number  44.
 FoFCou: FMM=F IPFlag=           0 FMFlag=      100000 FMFlg1=        2001
         NFxFlg=           0 DoJE=T BraDBF=F KetDBF=T FulRan=T
         wScrn=  0.000000 ICntrl=       500 IOpCl=  0 I1Cent=   200000004 NGrid=           0
         NMat0=    1 NMatS0=      1 NMatT0=    0 NMatD0=    1 NMtDS0=    0 NMtDT0=    0
 Petite list used in FoFCou.
 Initial guess <Sx>= 0.0000 <Sy>= 0.0000 <Sz>= 1.0000 <S**2>= 2.0000 S= 1.0000
 Requested convergence on RMS density matrix=1.00D-08 within  32 cycles.
 Requested convergence on MAX density matrix=1.00D-06.
 Requested convergence on             energy=1.00D-06.
 No special actions if energy rises.
 Defaulting to unpruned grid for atomic number  44.
 Defaulting to unpruned grid for atomic number  44.
 Defaulting to unpruned grid for atomic number  44.
 Defaulting to unpruned grid for atomic number  44.
 Defaulting to unpruned grid for atomic number  44.
 Defaulting to unpruned grid for atomic number  44.
 Defaulting to unpruned grid for atomic number  44.
 Defaulting to unpruned grid for atomic number  44.
 Defaulting to unpruned grid for atomic number  44.
 Defaulting to unpruned grid for atomic number  44.
 Defaulting to unpruned grid for atomic number  44.
 Defaulting to unpruned grid for atomic number  44.
 Defaulting to unpruned grid for atomic number  44.
 Defaulting to unpruned grid for atomic number  44.
 Defaulting to unpruned grid for atomic number  44.
 Defaulting to unpruned grid for atomic number  44.
 Defaulting to unpruned grid for atomic number  44.
 Defaulting to unpruned grid for atomic number  44.
 Defaulting to unpruned grid for atomic number  44.
 Defaulting to unpruned grid for atomic number  44.
 Defaulting to unpruned grid for atomic number  44.
 Defaulting to unpruned grid for atomic number  44.
 Defaulting to unpruned grid for atomic number  44.
 Defaulting to unpruned grid for atomic number  44.
 Inv3:  Mode=1 IEnd=    64449675.
 Iteration    1 A*A^-1 deviation from unit magnitude is 3.66D-15 for    368.
 Iteration    1 A*A^-1 deviation from orthogonality  is 3.11D-15 for   2727   2104.
 Iteration    1 A^-1*A deviation from unit magnitude is 3.55D-15 for   2679.
 Iteration    1 A^-1*A deviation from orthogonality  is 2.67D-14 for   4194   4144.
 EnCoef did   100 forward-backward iterations
 Restarting incremental Fock formation.
 Error on total polarization charges =  0.07767
 SCF Done:  E(UB3LYP) =  -1998.92321893     A.U. after   26 cycles
            NFock= 26  Conv=0.15D-08     -V/T= 2.0404
 <Sx>= 0.0000 <Sy>= 0.0000 <Sz>= 1.0000 <S**2>= 2.0219 S= 1.0073
 <L.S>=  0.00000000000    
 SMD-CDS (non-electrostatic) energy       (kcal/mol) =      11.70
 (included in total energy above)
 Annihilation of the first spin contaminant:
 S**2 before annihilation     2.0219,   after     2.0003
 QCSCF skips out because SCF is already converged.
 DoSCS=F DFT=T ScalE2(SS,OS)=  1.000000  1.000000
 ExpMin= 3.92D-02 ExpMax= 8.00D+03 ExpMxC= 1.20D+03 IAcc=3 IRadAn=         5 AccDes= 0.00D+00
 HarFok:  IExCor=  205 AccDes= 0.00D+00 IRadAn=         5 IDoV=-2 UseB2=F ITyADJ=14
 ICtDFT= 12500011 ScaDFX=  1.000000  1.000000  1.000000  1.000000
 Defaulting to unpruned grid for atomic number  44.
 GSVD:  LWork=       -2100 too small for GESVD, short by        9450 words or        9450 for optimal perf.
 Range of M.O.s used for correlation:    43   684
 NBasis=   684 NAE=   134 NBE=   132 NFC=    42 NFV=     0
 NROrb=    642 NOA=    92 NOB=    90 NVA=   550 NVB=   552

 **** Warning!!: The smallest alpha delta epsilon is  0.46180244D-01

 Ignoring spin specification with unrestricted ground state.
 NEqPCM:  Using non-equilibrium solvation (IEInf=1, Eps=  78.3553, EpsInf=   1.7778)
 Inv3:  Mode=1 IEnd=    64449675.
 Iteration    1 A*A^-1 deviation from unit magnitude is 3.77D-15 for   2676.
 Iteration    1 A*A^-1 deviation from orthogonality  is 2.44D-15 for   3261    188.
 Iteration    1 A^-1*A deviation from unit magnitude is 4.11D-15 for   3796.
 Iteration    1 A^-1*A deviation from orthogonality  is 2.36D-14 for   4225   4144.
 Orbital symmetries:
 Alpha Orbitals:
       Occupied  (A) (A) (A) (A) (A) (A) (A) (A) (A) (A) (A) (A)
                 (A) (A) (A) (A) (A) (A) (A) (A) (A) (A) (A) (A)
                 (A) (A) (A) (A) (A) (A) (A) (A) (A) (A) (A) (A)
                 (A) (A) (A) (A) (A) (A) (A) (A) (A) (A) (A) (A)
                 (A) (A) (A) (A) (A) (A) (A) (A) (A) (A) (A) (A)
                 (A) (A) (A) (A) (A) (A) (A) (A) (A) (A) (A) (A)
                 (A) (A) (A) (A) (A) (A) (A) (A) (A) (A) (A) (A)
                 (A) (A) (A) (A) (A) (A) (A) (A) (A) (A) (A) (A)
                 (A) (A) (A) (A) (A) (A) (A) (A) (A) (A) (A) (A)
                 (A) (A) (A) (A) (A) (A) (A) (A) (A) (A) (A) (A)
                 (A) (A) (A) (A) (A) (A) (A) (A) (A) (A) (A) (A)
                 (A) (A)
       Virtual   (A) (A) (A) (A) (A) (A) (A) (A) (A) (A) (A) (A)
                 (A) (A) (A) (A) (A) (A) (A) (A) (A) (A) (A) (A)
                 (A) (A) (A) (A) (A) (A) (A) (A) (A) (A) (A) (A)
                 (A) (A) (A) (A) (A) (A) (A) (A) (A) (A) (A) (A)
                 (A) (A) (A) (A) (A) (A) (A) (A) (A) (A) (A) (A)
                 (A) (A) (A) (A) (A) (A) (A) (A) (A) (A) (A) (A)
                 (A) (A) (A) (A) (A) (A) (A) (A) (A) (A) (A) (A)
                 (A) (A) (A) (A) (A) (A) (A) (A) (A) (A) (A) (A)
                 (A) (A) (A) (A) (A) (A) (A) (A) (A) (A) (A) (A)
                 (A) (A) (A) (A) (A) (A) (A) (A) (A) (A) (A) (A)
                 (A) (A) (A) (A) (A) (A) (A) (A) (A) (A) (A) (A)
                 (A) (A) (A) (A) (A) (A) (A) (A) (A) (A) (A) (A)
                 (A) (A) (A) (A) (A) (A) (A) (A) (A) (A) (A) (A)
                 (A) (A) (A) (A) (A) (A) (A) (A) (A) (A) (A) (A)
                 (A) (A) (A) (A) (A) (A) (A) (A) (A) (A) (A) (A)
                 (A) (A) (A) (A) (A) (A) (A) (A) (A) (A) (A) (A)
                 (A) (A) (A) (A) (A) (A) (A) (A) (A) (A) (A) (A)
                 (A) (A) (A) (A) (A) (A) (A) (A) (A) (A) (A) (A)
                 (A) (A) (A) (A) (A) (A) (A) (A) (A) (A) (A) (A)
                 (A) (A) (A) (A) (A) (A) (A) (A) (A) (A) (A) (A)
                 (A) (A) (A) (A) (A) (A) (A) (A) (A) (A) (A) (A)
                 (A) (A) (A) (A) (A) (A) (A) (A) (A) (A) (A) (A)
                 (A) (A) (A) (A) (A) (A) (A) (A) (A) (A) (A) (A)
                 (A) (A) (A) (A) (A) (A) (A) (A) (A) (A) (A) (A)
                 (A) (A) (A) (A) (A) (A) (A) (A) (A) (A) (A) (A)
                 (A) (A) (A) (A) (A) (A) (A) (A) (A) (A) (A) (A)
                 (A) (A) (A) (A) (A) (A) (A) (A) (A) (A) (A) (A)
                 (A) (A) (A) (A) (A) (A) (A) (A) (A) (A) (A) (A)
                 (A) (A) (A) (A) (A) (A) (A) (A) (A) (A) (A) (A)
                 (A) (A) (A) (A) (A) (A) (A) (A) (A) (A) (A) (A)
                 (A) (A) (A) (A) (A) (A) (A) (A) (A) (A) (A) (A)
                 (A) (A) (A) (A) (A) (A) (A) (A) (A) (A) (A) (A)
                 (A) (A) (A) (A) (A) (A) (A) (A) (A) (A) (A) (A)
                 (A) (A) (A) (A) (A) (A) (A) (A) (A) (A) (A) (A)
                 (A) (A) (A) (A) (A) (A) (A) (A) (A) (A) (A) (A)
                 (A) (A) (A) (A) (A) (A) (A) (A) (A) (A) (A) (A)
                 (A) (A) (A) (A) (A) (A) (A) (A) (A) (A) (A) (A)
                 (A) (A) (A) (A) (A) (A) (A) (A) (A) (A) (A) (A)
                 (A) (A) (A) (A) (A) (A) (A) (A) (A) (A) (A) (A)
                 (A) (A) (A) (A) (A) (A) (A) (A) (A) (A) (A) (A)
                 (A) (A) (A) (A) (A) (A) (A) (A) (A) (A) (A) (A)
                 (A) (A) (A) (A) (A) (A) (A) (A) (A) (A) (A) (A)
                 (A) (A) (A) (A) (A) (A) (A) (A) (A) (A) (A) (A)
                 (A) (A) (A) (A) (A) (A) (A) (A) (A) (A) (A) (A)
                 (A) (A) (A) (A) (A) (A) (A) (A) (A) (A) (A) (A)
                 (A) (A) (A) (A) (A) (A) (A) (A) (A) (A)
 Beta  Orbitals:
       Occupied  (A) (A) (A) (A) (A) (A) (A) (A) (A) (A) (A) (A)
                 (A) (A) (A) (A) (A) (A) (A) (A) (A) (A) (A) (A)
                 (A) (A) (A) (A) (A) (A) (A) (A) (A) (A) (A) (A)
                 (A) (A) (A) (A) (A) (A) (A) (A) (A) (A) (A) (A)
                 (A) (A) (A) (A) (A) (A) (A) (A) (A) (A) (A) (A)
                 (A) (A) (A) (A) (A) (A) (A) (A) (A) (A) (A) (A)
                 (A) (A) (A) (A) (A) (A) (A) (A) (A) (A) (A) (A)
                 (A) (A) (A) (A) (A) (A) (A) (A) (A) (A) (A) (A)
                 (A) (A) (A) (A) (A) (A) (A) (A) (A) (A) (A) (A)
                 (A) (A) (A) (A) (A) (A) (A) (A) (A) (A) (A) (A)
                 (A) (A) (A) (A) (A) (A) (A) (A) (A) (A) (A) (A)
       Virtual   (A) (A) (A) (A) (A) (A) (A) (A) (A) (A) (A) (A)
                 (A) (A) (A) (A) (A) (A) (A) (A) (A) (A) (A) (A)
                 (A) (A) (A) (A) (A) (A) (A) (A) (A) (A) (A) (A)
                 (A) (A) (A) (A) (A) (A) (A) (A) (A) (A) (A) (A)
                 (A) (A) (A) (A) (A) (A) (A) (A) (A) (A) (A) (A)
                 (A) (A) (A) (A) (A) (A) (A) (A) (A) (A) (A) (A)
                 (A) (A) (A) (A) (A) (A) (A) (A) (A) (A) (A) (A)
                 (A) (A) (A) (A) (A) (A) (A) (A) (A) (A) (A) (A)
                 (A) (A) (A) (A) (A) (A) (A) (A) (A) (A) (A) (A)
                 (A) (A) (A) (A) (A) (A) (A) (A) (A) (A) (A) (A)
                 (A) (A) (A) (A) (A) (A) (A) (A) (A) (A) (A) (A)
                 (A) (A) (A) (A) (A) (A) (A) (A) (A) (A) (A) (A)
                 (A) (A) (A) (A) (A) (A) (A) (A) (A) (A) (A) (A)
                 (A) (A) (A) (A) (A) (A) (A) (A) (A) (A) (A) (A)
                 (A) (A) (A) (A) (A) (A) (A) (A) (A) (A) (A) (A)
                 (A) (A) (A) (A) (A) (A) (A) (A) (A) (A) (A) (A)
                 (A) (A) (A) (A) (A) (A) (A) (A) (A) (A) (A) (A)
                 (A) (A) (A) (A) (A) (A) (A) (A) (A) (A) (A) (A)
                 (A) (A) (A) (A) (A) (A) (A) (A) (A) (A) (A) (A)
                 (A) (A) (A) (A) (A) (A) (A) (A) (A) (A) (A) (A)
                 (A) (A) (A) (A) (A) (A) (A) (A) (A) (A) (A) (A)
                 (A) (A) (A) (A) (A) (A) (A) (A) (A) (A) (A) (A)
                 (A) (A) (A) (A) (A) (A) (A) (A) (A) (A) (A) (A)
                 (A) (A) (A) (A) (A) (A) (A) (A) (A) (A) (A) (A)
                 (A) (A) (A) (A) (A) (A) (A) (A) (A) (A) (A) (A)
                 (A) (A) (A) (A) (A) (A) (A) (A) (A) (A) (A) (A)
                 (A) (A) (A) (A) (A) (A) (A) (A) (A) (A) (A) (A)
                 (A) (A) (A) (A) (A) (A) (A) (A) (A) (A) (A) (A)
                 (A) (A) (A) (A) (A) (A) (A) (A) (A) (A) (A) (A)
                 (A) (A) (A) (A) (A) (A) (A) (A) (A) (A) (A) (A)
                 (A) (A) (A) (A) (A) (A) (A) (A) (A) (A) (A) (A)
                 (A) (A) (A) (A) (A) (A) (A) (A) (A) (A) (A) (A)
                 (A) (A) (A) (A) (A) (A) (A) (A) (A) (A) (A) (A)
                 (A) (A) (A) (A) (A) (A) (A) (A) (A) (A) (A) (A)
                 (A) (A) (A) (A) (A) (A) (A) (A) (A) (A) (A) (A)
                 (A) (A) (A) (A) (A) (A) (A) (A) (A) (A) (A) (A)
                 (A) (A) (A) (A) (A) (A) (A) (A) (A) (A) (A) (A)
                 (A) (A) (A) (A) (A) (A) (A) (A) (A) (A) (A) (A)
                 (A) (A) (A) (A) (A) (A) (A) (A) (A) (A) (A) (A)
                 (A) (A) (A) (A) (A) (A) (A) (A) (A) (A) (A) (A)
                 (A) (A) (A) (A) (A) (A) (A) (A) (A) (A) (A) (A)
                 (A) (A) (A) (A) (A) (A) (A) (A) (A) (A) (A) (A)
                 (A) (A) (A) (A) (A) (A) (A) (A) (A) (A) (A) (A)
                 (A) (A) (A) (A) (A) (A) (A) (A) (A) (A) (A) (A)
                 (A) (A) (A) (A) (A) (A) (A) (A) (A) (A) (A) (A)
                 (A) (A) (A) (A) (A) (A) (A) (A) (A) (A) (A) (A)
    20 initial guesses have been made.
 Convergence on wavefunction:    0.001000000000000
 Iteration     1 Dimension    20 NMult     0 NNew     20
 CISAX will form    20 AO SS matrices at one time.
 Defaulting to unpruned grid for atomic number  44.
 Defaulting to unpruned grid for atomic number  44.
 Defaulting to unpruned grid for atomic number  44.
 Defaulting to unpruned grid for atomic number  44.
 Defaulting to unpruned grid for atomic number  44.
 Defaulting to unpruned grid for atomic number  44.
 Defaulting to unpruned grid for atomic number  44.
 Defaulting to unpruned grid for atomic number  44.
 Defaulting to unpruned grid for atomic number  44.
 Defaulting to unpruned grid for atomic number  44.
 Defaulting to unpruned grid for atomic number  44.
 Defaulting to unpruned grid for atomic number  44.
 Defaulting to unpruned grid for atomic number  44.
 Defaulting to unpruned grid for atomic number  44.
 Defaulting to unpruned grid for atomic number  44.
 Defaulting to unpruned grid for atomic number  44.
 Defaulting to unpruned grid for atomic number  44.
 Defaulting to unpruned grid for atomic number  44.
 Defaulting to unpruned grid for atomic number  44.
 Defaulting to unpruned grid for atomic number  44.
 Defaulting to unpruned grid for atomic number  44.
 Defaulting to unpruned grid for atomic number  44.
 Defaulting to unpruned grid for atomic number  44.
 Defaulting to unpruned grid for atomic number  44.
 New state      2 was old state      6
 New state      3 was old state      2
 New state      4 was old state      7
 New state      5 was old state      4
 Iteration     2 Dimension    30 NMult    20 NNew     10
 Iteration     3 Dimension    40 NMult    30 NNew     10
 Iteration     4 Dimension    50 NMult    40 NNew     10
 Iteration     5 Dimension    60 NMult    50 NNew     10
 Iteration     6 Dimension    70 NMult    60 NNew     10
 Iteration     7 Dimension    78 NMult    70 NNew      8
 ***********************************************************************
 Excited states from <AA,BB:AA,BB> singles matrix:
 ***********************************************************************
 
 ExtSpn:  IState=     1 X2= 1.010 Y2= 0.010 X2-Y2-1= 6.66D-16
          S2Grnd=  2.022 Ra=  0.003 Rb=  0.001 T= -0.004 S2Ext= -0.000 S2=  2.022
 ExtSpn:  IState=     2 X2= 1.007 Y2= 0.007 X2-Y2-1=-2.22D-16
          S2Grnd=  2.022 Ra=  0.001 Rb=  0.002 T=  0.001 S2Ext=  0.003 S2=  2.025
 ExtSpn:  IState=     3 X2= 1.005 Y2= 0.005 X2-Y2-1=-1.11D-16
          S2Grnd=  2.022 Ra=  0.001 Rb=  0.000 T= -0.003 S2Ext= -0.002 S2=  2.020
 ExtSpn:  IState=     4 X2= 1.003 Y2= 0.003 X2-Y2-1=-6.66D-16
          S2Grnd=  2.022 Ra=  0.002 Rb=  0.003 T= -0.003 S2Ext=  0.002 S2=  2.024
 ExtSpn:  IState=     5 X2= 1.003 Y2= 0.003 X2-Y2-1= 2.22D-16
          S2Grnd=  2.022 Ra=  0.006 Rb=  0.002 T= -0.001 S2Ext=  0.007 S2=  2.029
 Ground to excited state transition densities written to RWF  633
 Ground to excited state transition electric dipole moments (Au):
       state          X           Y           Z        Dip. S.      Osc.
         1        -0.1546     -1.0473      0.0905      1.1290      0.0106
         2        -0.2188      0.0786      0.0876      0.0617      0.0017
         3         0.0592     -0.1384     -0.0096      0.0228      0.0006
         4         0.0348      0.1963      0.1322      0.0572      0.0021
         5         0.0155     -0.4879      0.1057      0.2495      0.0096
 Ground to excited state transition velocity dipole moments (Au):
       state          X           Y           Z        Dip. S.      Osc.
         1        -0.0000      0.0140     -0.0028      0.0002      0.0096
         2         0.0101     -0.0017     -0.0048      0.0001      0.0021
         3        -0.0074      0.0028      0.0027      0.0001      0.0011
         4         0.0015     -0.0130     -0.0014      0.0002      0.0021
         5        -0.0015      0.0250     -0.0095      0.0007      0.0083
 Ground to excited state transition magnetic dipole moments (Au):
       state          X           Y           Z
         1        -0.0032      0.0306     -0.0129
         2        -0.5431      0.3696     -0.9109
         3         0.2551      0.5096      0.5528
         4        -0.4475     -0.1465      0.0668
         5        -0.3266     -0.1019     -0.1479
 Ground to excited state transition velocity quadrupole moments (Au):
       state          XX          YY          ZZ          XY          XZ          YZ
         1        -0.0488      0.0776     -0.0138      0.0021     -0.0034     -0.0152
         2         0.0012     -0.0113      0.0106     -0.0015     -0.0012     -0.0063
         3        -0.0073      0.0139      0.0010     -0.0087      0.0063      0.0078
         4         0.0778     -0.0920      0.0180     -0.0159      0.0028      0.0132
         5         0.0387      0.1100     -0.0054     -0.0191     -0.0020     -0.0157
 <0|del|b> * <b|rxdel|0> + <0|del|b> * <b|delr+rdel|0>
 Rotatory Strengths (R) in cgs (10**-40 erg-esu-cm/Gauss)
       state          XX          YY          ZZ    R(velocity)    E-M Angle
         1        12.6405      1.0685      9.4983      7.7358       12.76
         2        32.3462    -10.4795    -52.8445    -10.3259       98.05
         3        24.7561     -3.7387     -3.4088      5.8695       81.16
         4        11.9552     -4.7876      7.6057      4.9244       79.35
         5        -5.5342     10.7075    -12.9056     -2.5774       93.64
 1/2[<0|r|b>*<b|rxdel|0> + (<0|rxdel|b>*<b|r|0>)*]
 Rotatory Strengths (R) in cgs (10**-40 erg-esu-cm/Gauss)
       state          XX          YY          ZZ     R(length)
         1        -0.3496     22.6392      0.8277      7.7058
         2       -84.0192    -20.5356     56.4101    -16.0482
         3       -10.6771     49.8839      3.7457     14.3175
         4        11.0000     20.3334     -6.2396      8.3646
         5         3.5738    -35.1442     11.0584     -6.8373
  1/2[<0|del|b>*<b|r|0> + (<0|r|b>*<b|del|0>)*] (Au)
       state          X           Y           Z        Dip. S.   Osc.(frdel)
         1         0.0000     -0.0146     -0.0003      0.0149      0.0099
         2        -0.0022     -0.0001     -0.0004      0.0028      0.0018
         3        -0.0004     -0.0004     -0.0000      0.0008      0.0006
         4         0.0001     -0.0026     -0.0002      0.0027      0.0018
         5        -0.0000     -0.0122     -0.0010      0.0132      0.0088

 Excitation energies and oscillator strengths:
 
 Excited State   1:  3.014-A      0.3847 eV 3223.10 nm  f=0.0106  <S**2>=2.022
    134A ->135A        0.99453
 This state for optimization and/or second-order correction.
 Total Energy, E(TD-HF/TD-DFT) =  -1998.90908245    
 Copying the excited state density for this state as the 1-particle RhoCI density.
 
 Excited State   2:  3.017-A      1.1008 eV 1126.27 nm  f=0.0017  <S**2>=2.025
    134A ->136A        0.78052
    134A ->137A       -0.13972
    134A ->138A        0.29844
    134A ->139A       -0.11443
    132B ->133B        0.49063
 
 Excited State   3:  3.013-A      1.1110 eV 1115.92 nm  f=0.0006  <S**2>=2.020
    134A ->136A       -0.46891
    134A ->138A       -0.20146
    127B ->133B        0.17119
    131B ->133B       -0.13027
    132B ->133B        0.81435
 
 Excited State   4:  3.016-A      1.5075 eV  822.47 nm  f=0.0021  <S**2>=2.024
    134A ->137A       -0.26244
    134A ->138A       -0.22074
    134A ->139A        0.17634
    126B ->133B       -0.12491
    129B ->133B        0.35186
    130B ->133B       -0.21901
    131B ->133B        0.78336
    132B ->133B        0.13974
 
 Excited State   5:  3.019-A      1.5775 eV  785.95 nm  f=0.0096  <S**2>=2.029
    134A ->136A       -0.12129
    134A ->137A        0.69341
    134A ->138A        0.41642
    134A ->139A       -0.40588
    129B ->133B        0.17908
    131B ->133B        0.31459
 SavETr:  write IOETrn=   770 NScale= 10 NData=  16 NLR=1 NState=    5 LETran=     100.

 **********************************************************************

            Population analysis using the SCF Density.

 **********************************************************************

 Orbital symmetries:
 Alpha Orbitals:
       Occupied  (A) (A) (A) (A) (A) (A) (A) (A) (A) (A) (A) (A)
                 (A) (A) (A) (A) (A) (A) (A) (A) (A) (A) (A) (A)
                 (A) (A) (A) (A) (A) (A) (A) (A) (A) (A) (A) (A)
                 (A) (A) (A) (A) (A) (A) (A) (A) (A) (A) (A) (A)
                 (A) (A) (A) (A) (A) (A) (A) (A) (A) (A) (A) (A)
                 (A) (A) (A) (A) (A) (A) (A) (A) (A) (A) (A) (A)
                 (A) (A) (A) (A) (A) (A) (A) (A) (A) (A) (A) (A)
                 (A) (A) (A) (A) (A) (A) (A) (A) (A) (A) (A) (A)
                 (A) (A) (A) (A) (A) (A) (A) (A) (A) (A) (A) (A)
                 (A) (A) (A) (A) (A) (A) (A) (A) (A) (A) (A) (A)
                 (A) (A) (A) (A) (A) (A) (A) (A) (A) (A) (A) (A)
                 (A) (A)
       Virtual   (A) (A) (A) (A) (A) (A) (A) (A) (A) (A) (A) (A)
                 (A) (A) (A) (A) (A) (A) (A) (A) (A) (A) (A) (A)
                 (A) (A) (A) (A) (A) (A) (A) (A) (A) (A) (A) (A)
                 (A) (A) (A) (A) (A) (A) (A) (A) (A) (A) (A) (A)
                 (A) (A) (A) (A) (A) (A) (A) (A) (A) (A) (A) (A)
                 (A) (A) (A) (A) (A) (A) (A) (A) (A) (A) (A) (A)
                 (A) (A) (A) (A) (A) (A) (A) (A) (A) (A) (A) (A)
                 (A) (A) (A) (A) (A) (A) (A) (A) (A) (A) (A) (A)
                 (A) (A) (A) (A) (A) (A) (A) (A) (A) (A) (A) (A)
                 (A) (A) (A) (A) (A) (A) (A) (A) (A) (A) (A) (A)
                 (A) (A) (A) (A) (A) (A) (A) (A) (A) (A) (A) (A)
                 (A) (A) (A) (A) (A) (A) (A) (A) (A) (A) (A) (A)
                 (A) (A) (A) (A) (A) (A) (A) (A) (A) (A) (A) (A)
                 (A) (A) (A) (A) (A) (A) (A) (A) (A) (A) (A) (A)
                 (A) (A) (A) (A) (A) (A) (A) (A) (A) (A) (A) (A)
                 (A) (A) (A) (A) (A) (A) (A) (A) (A) (A) (A) (A)
                 (A) (A) (A) (A) (A) (A) (A) (A) (A) (A) (A) (A)
                 (A) (A) (A) (A) (A) (A) (A) (A) (A) (A) (A) (A)
                 (A) (A) (A) (A) (A) (A) (A) (A) (A) (A) (A) (A)
                 (A) (A) (A) (A) (A) (A) (A) (A) (A) (A) (A) (A)
                 (A) (A) (A) (A) (A) (A) (A) (A) (A) (A) (A) (A)
                 (A) (A) (A) (A) (A) (A) (A) (A) (A) (A) (A) (A)
                 (A) (A) (A) (A) (A) (A) (A) (A) (A) (A) (A) (A)
                 (A) (A) (A) (A) (A) (A) (A) (A) (A) (A) (A) (A)
                 (A) (A) (A) (A) (A) (A) (A) (A) (A) (A) (A) (A)
                 (A) (A) (A) (A) (A) (A) (A) (A) (A) (A) (A) (A)
                 (A) (A) (A) (A) (A) (A) (A) (A) (A) (A) (A) (A)
                 (A) (A) (A) (A) (A) (A) (A) (A) (A) (A) (A) (A)
                 (A) (A) (A) (A) (A) (A) (A) (A) (A) (A) (A) (A)
                 (A) (A) (A) (A) (A) (A) (A) (A) (A) (A) (A) (A)
                 (A) (A) (A) (A) (A) (A) (A) (A) (A) (A) (A) (A)
                 (A) (A) (A) (A) (A) (A) (A) (A) (A) (A) (A) (A)
                 (A) (A) (A) (A) (A) (A) (A) (A) (A) (A) (A) (A)
                 (A) (A) (A) (A) (A) (A) (A) (A) (A) (A) (A) (A)
                 (A) (A) (A) (A) (A) (A) (A) (A) (A) (A) (A) (A)
                 (A) (A) (A) (A) (A) (A) (A) (A) (A) (A) (A) (A)
                 (A) (A) (A) (A) (A) (A) (A) (A) (A) (A) (A) (A)
                 (A) (A) (A) (A) (A) (A) (A) (A) (A) (A) (A) (A)
                 (A) (A) (A) (A) (A) (A) (A) (A) (A) (A) (A) (A)
                 (A) (A) (A) (A) (A) (A) (A) (A) (A) (A) (A) (A)
                 (A) (A) (A) (A) (A) (A) (A) (A) (A) (A) (A) (A)
                 (A) (A) (A) (A) (A) (A) (A) (A) (A) (A) (A) (A)
                 (A) (A) (A) (A) (A) (A) (A) (A) (A) (A) (A) (A)
                 (A) (A) (A) (A) (A) (A) (A) (A) (A) (A) (A) (A)
                 (A) (A) (A) (A) (A) (A) (A) (A) (A) (A) (A) (A)
                 (A) (A) (A) (A) (A) (A) (A) (A) (A) (A)
 Beta  Orbitals:
       Occupied  (A) (A) (A) (A) (A) (A) (A) (A) (A) (A) (A) (A)
                 (A) (A) (A) (A) (A) (A) (A) (A) (A) (A) (A) (A)
                 (A) (A) (A) (A) (A) (A) (A) (A) (A) (A) (A) (A)
                 (A) (A) (A) (A) (A) (A) (A) (A) (A) (A) (A) (A)
                 (A) (A) (A) (A) (A) (A) (A) (A) (A) (A) (A) (A)
                 (A) (A) (A) (A) (A) (A) (A) (A) (A) (A) (A) (A)
                 (A) (A) (A) (A) (A) (A) (A) (A) (A) (A) (A) (A)
                 (A) (A) (A) (A) (A) (A) (A) (A) (A) (A) (A) (A)
                 (A) (A) (A) (A) (A) (A) (A) (A) (A) (A) (A) (A)
                 (A) (A) (A) (A) (A) (A) (A) (A) (A) (A) (A) (A)
                 (A) (A) (A) (A) (A) (A) (A) (A) (A) (A) (A) (A)
       Virtual   (A) (A) (A) (A) (A) (A) (A) (A) (A) (A) (A) (A)
                 (A) (A) (A) (A) (A) (A) (A) (A) (A) (A) (A) (A)
                 (A) (A) (A) (A) (A) (A) (A) (A) (A) (A) (A) (A)
                 (A) (A) (A) (A) (A) (A) (A) (A) (A) (A) (A) (A)
                 (A) (A) (A) (A) (A) (A) (A) (A) (A) (A) (A) (A)
                 (A) (A) (A) (A) (A) (A) (A) (A) (A) (A) (A) (A)
                 (A) (A) (A) (A) (A) (A) (A) (A) (A) (A) (A) (A)
                 (A) (A) (A) (A) (A) (A) (A) (A) (A) (A) (A) (A)
                 (A) (A) (A) (A) (A) (A) (A) (A) (A) (A) (A) (A)
                 (A) (A) (A) (A) (A) (A) (A) (A) (A) (A) (A) (A)
                 (A) (A) (A) (A) (A) (A) (A) (A) (A) (A) (A) (A)
                 (A) (A) (A) (A) (A) (A) (A) (A) (A) (A) (A) (A)
                 (A) (A) (A) (A) (A) (A) (A) (A) (A) (A) (A) (A)
                 (A) (A) (A) (A) (A) (A) (A) (A) (A) (A) (A) (A)
                 (A) (A) (A) (A) (A) (A) (A) (A) (A) (A) (A) (A)
                 (A) (A) (A) (A) (A) (A) (A) (A) (A) (A) (A) (A)
                 (A) (A) (A) (A) (A) (A) (A) (A) (A) (A) (A) (A)
                 (A) (A) (A) (A) (A) (A) (A) (A) (A) (A) (A) (A)
                 (A) (A) (A) (A) (A) (A) (A) (A) (A) (A) (A) (A)
                 (A) (A) (A) (A) (A) (A) (A) (A) (A) (A) (A) (A)
                 (A) (A) (A) (A) (A) (A) (A) (A) (A) (A) (A) (A)
                 (A) (A) (A) (A) (A) (A) (A) (A) (A) (A) (A) (A)
                 (A) (A) (A) (A) (A) (A) (A) (A) (A) (A) (A) (A)
                 (A) (A) (A) (A) (A) (A) (A) (A) (A) (A) (A) (A)
                 (A) (A) (A) (A) (A) (A) (A) (A) (A) (A) (A) (A)
                 (A) (A) (A) (A) (A) (A) (A) (A) (A) (A) (A) (A)
                 (A) (A) (A) (A) (A) (A) (A) (A) (A) (A) (A) (A)
                 (A) (A) (A) (A) (A) (A) (A) (A) (A) (A) (A) (A)
                 (A) (A) (A) (A) (A) (A) (A) (A) (A) (A) (A) (A)
                 (A) (A) (A) (A) (A) (A) (A) (A) (A) (A) (A) (A)
                 (A) (A) (A) (A) (A) (A) (A) (A) (A) (A) (A) (A)
                 (A) (A) (A) (A) (A) (A) (A) (A) (A) (A) (A) (A)
                 (A) (A) (A) (A) (A) (A) (A) (A) (A) (A) (A) (A)
                 (A) (A) (A) (A) (A) (A) (A) (A) (A) (A) (A) (A)
                 (A) (A) (A) (A) (A) (A) (A) (A) (A) (A) (A) (A)
                 (A) (A) (A) (A) (A) (A) (A) (A) (A) (A) (A) (A)
                 (A) (A) (A) (A) (A) (A) (A) (A) (A) (A) (A) (A)
                 (A) (A) (A) (A) (A) (A) (A) (A) (A) (A) (A) (A)
                 (A) (A) (A) (A) (A) (A) (A) (A) (A) (A) (A) (A)
                 (A) (A) (A) (A) (A) (A) (A) (A) (A) (A) (A) (A)
                 (A) (A) (A) (A) (A) (A) (A) (A) (A) (A) (A) (A)
                 (A) (A) (A) (A) (A) (A) (A) (A) (A) (A) (A) (A)
                 (A) (A) (A) (A) (A) (A) (A) (A) (A) (A) (A) (A)
                 (A) (A) (A) (A) (A) (A) (A) (A) (A) (A) (A) (A)
                 (A) (A) (A) (A) (A) (A) (A) (A) (A) (A) (A) (A)
                 (A) (A) (A) (A) (A) (A) (A) (A) (A) (A) (A) (A)
 The electronic state is 3-A.
 Alpha  occ. eigenvalues --  -77.08723 -77.08505 -19.19280 -19.11868 -19.06803
 Alpha  occ. eigenvalues --  -14.32383 -10.28174 -10.21231 -10.21001 -10.20920
 Alpha  occ. eigenvalues --  -10.20845 -10.20784 -10.20624 -10.19016 -10.18965
 Alpha  occ. eigenvalues --  -10.17777 -10.17603 -10.17537 -10.17528 -10.17472
 Alpha  occ. eigenvalues --  -10.17387 -10.17352 -10.17296 -10.17226 -10.17103
 Alpha  occ. eigenvalues --  -10.17023 -10.16960 -10.16653 -10.16470 -10.16167
 Alpha  occ. eigenvalues --   -6.57929  -6.57691  -4.74503  -4.74465  -4.74305
 Alpha  occ. eigenvalues --   -4.74271  -4.74228  -4.74086  -3.06346  -1.90814
 Alpha  occ. eigenvalues --   -1.90649  -1.88993  -1.09893  -0.93249  -0.91331
 Alpha  occ. eigenvalues --   -0.88739  -0.82291  -0.81887  -0.79864  -0.79547
 Alpha  occ. eigenvalues --   -0.78297  -0.76647  -0.72952  -0.68835  -0.68114
 Alpha  occ. eigenvalues --   -0.67985  -0.67843  -0.67564  -0.67132  -0.67033
 Alpha  occ. eigenvalues --   -0.66787  -0.66606  -0.63370  -0.61464  -0.58406
 Alpha  occ. eigenvalues --   -0.57688  -0.55327  -0.54559  -0.54179  -0.51329
 Alpha  occ. eigenvalues --   -0.50793  -0.49038  -0.47912  -0.47207  -0.47038
 Alpha  occ. eigenvalues --   -0.46006  -0.45819  -0.45341  -0.45012  -0.44585
 Alpha  occ. eigenvalues --   -0.44524  -0.44168  -0.43930  -0.43703  -0.43431
 Alpha  occ. eigenvalues --   -0.42769  -0.42619  -0.42411  -0.42126  -0.42086
 Alpha  occ. eigenvalues --   -0.41502  -0.40959  -0.40447  -0.39821  -0.39520
 Alpha  occ. eigenvalues --   -0.39153  -0.38735  -0.38205  -0.37827  -0.37495
 Alpha  occ. eigenvalues --   -0.37321  -0.37170  -0.37049  -0.36704  -0.36220
 Alpha  occ. eigenvalues --   -0.35965  -0.35629  -0.35581  -0.35489  -0.34986
 Alpha  occ. eigenvalues --   -0.34677  -0.34640  -0.34359  -0.33836  -0.33520
 Alpha  occ. eigenvalues --   -0.33166  -0.32743  -0.32734  -0.32345  -0.32213
 Alpha  occ. eigenvalues --   -0.31511  -0.31337  -0.30582  -0.29854  -0.29332
 Alpha  occ. eigenvalues --   -0.28731  -0.28347  -0.27345  -0.26714  -0.24494
 Alpha  occ. eigenvalues --   -0.23955  -0.22702  -0.21285  -0.09008
 Alpha virt. eigenvalues --   -0.04390  -0.00403   0.00252   0.00360   0.00557
 Alpha virt. eigenvalues --    0.04245   0.05061   0.05783   0.06309   0.06785
 Alpha virt. eigenvalues --    0.07292   0.07714   0.07966   0.08451   0.08734
 Alpha virt. eigenvalues --    0.09047   0.09366   0.09915   0.10129   0.10500
 Alpha virt. eigenvalues --    0.10721   0.10956   0.11239   0.11895   0.12080
 Alpha virt. eigenvalues --    0.12361   0.13085   0.13288   0.13547   0.13833
 Alpha virt. eigenvalues --    0.13949   0.14195   0.14260   0.14781   0.15072
 Alpha virt. eigenvalues --    0.15324   0.15622   0.16180   0.16468   0.16704
 Alpha virt. eigenvalues --    0.17080   0.17421   0.17564   0.17745   0.17978
 Alpha virt. eigenvalues --    0.18091   0.18467   0.18954   0.19348   0.20054
 Alpha virt. eigenvalues --    0.20296   0.20466   0.20723   0.20855   0.21263
 Alpha virt. eigenvalues --    0.21389   0.21643   0.21698   0.22115   0.22529
 Alpha virt. eigenvalues --    0.23097   0.23633   0.24192   0.24501   0.24797
 Alpha virt. eigenvalues --    0.24996   0.25524   0.26083   0.26344   0.27005
 Alpha virt. eigenvalues --    0.27216   0.27685   0.28794   0.29238   0.30560
 Alpha virt. eigenvalues --    0.30788   0.31608   0.32295   0.33869   0.34659
 Alpha virt. eigenvalues --    0.35260   0.36575   0.37429   0.38525   0.39749
 Alpha virt. eigenvalues --    0.40011   0.40652   0.40793   0.41082   0.41646
 Alpha virt. eigenvalues --    0.42114   0.42354   0.43131   0.43406   0.43702
 Alpha virt. eigenvalues --    0.43978   0.44363   0.45342   0.45697   0.46430
 Alpha virt. eigenvalues --    0.46761   0.48049   0.48281   0.49325   0.49807
 Alpha virt. eigenvalues --    0.50186   0.51300   0.52262   0.52680   0.53356
 Alpha virt. eigenvalues --    0.53523   0.54194   0.54467   0.54548   0.54766
 Alpha virt. eigenvalues --    0.55251   0.56329   0.56354   0.56969   0.57712
 Alpha virt. eigenvalues --    0.58229   0.58499   0.58909   0.59170   0.59751
 Alpha virt. eigenvalues --    0.59954   0.60845   0.60868   0.61163   0.61727
 Alpha virt. eigenvalues --    0.61950   0.62372   0.63220   0.63341   0.63418
 Alpha virt. eigenvalues --    0.63943   0.64416   0.64600   0.65047   0.65169
 Alpha virt. eigenvalues --    0.65467   0.65522   0.65851   0.66151   0.66289
 Alpha virt. eigenvalues --    0.66548   0.66658   0.66808   0.67151   0.67554
 Alpha virt. eigenvalues --    0.67819   0.67994   0.68357   0.68636   0.68779
 Alpha virt. eigenvalues --    0.68978   0.69156   0.69478   0.69632   0.70007
 Alpha virt. eigenvalues --    0.70344   0.70646   0.70899   0.71348   0.71611
 Alpha virt. eigenvalues --    0.71741   0.71914   0.72224   0.72647   0.72844
 Alpha virt. eigenvalues --    0.72860   0.73066   0.73400   0.73747   0.73866
 Alpha virt. eigenvalues --    0.74200   0.74463   0.74971   0.75238   0.75454
 Alpha virt. eigenvalues --    0.75832   0.76125   0.76378   0.76603   0.76891
 Alpha virt. eigenvalues --    0.77383   0.77961   0.78330   0.78842   0.79118
 Alpha virt. eigenvalues --    0.79403   0.79755   0.80447   0.80624   0.80801
 Alpha virt. eigenvalues --    0.81408   0.81838   0.82068   0.82319   0.82966
 Alpha virt. eigenvalues --    0.83400   0.84033   0.84377   0.84666   0.85318
 Alpha virt. eigenvalues --    0.86333   0.87294   0.87489   0.87783   0.89039
 Alpha virt. eigenvalues --    0.89496   0.89864   0.90566   0.91944   0.92270
 Alpha virt. eigenvalues --    0.92513   0.94102   0.94802   0.95850   0.96473
 Alpha virt. eigenvalues --    0.96520   0.98677   0.99123   1.00724   1.01034
 Alpha virt. eigenvalues --    1.02232   1.02858   1.03698   1.04459   1.04558
 Alpha virt. eigenvalues --    1.05245   1.06026   1.06353   1.06779   1.07900
 Alpha virt. eigenvalues --    1.08584   1.09239   1.09650   1.11039   1.12193
 Alpha virt. eigenvalues --    1.12521   1.13285   1.15106   1.15989   1.16311
 Alpha virt. eigenvalues --    1.16987   1.17733   1.18891   1.19514   1.20147
 Alpha virt. eigenvalues --    1.21046   1.21300   1.21474   1.22120   1.23021
 Alpha virt. eigenvalues --    1.23390   1.24522   1.24724   1.25386   1.26266
 Alpha virt. eigenvalues --    1.27053   1.27596   1.28526   1.29076   1.29542
 Alpha virt. eigenvalues --    1.30055   1.30304   1.31292   1.32274   1.33041
 Alpha virt. eigenvalues --    1.34037   1.34196   1.35004   1.38038   1.38944
 Alpha virt. eigenvalues --    1.41226   1.42289   1.43878   1.45093   1.46896
 Alpha virt. eigenvalues --    1.48311   1.49179   1.50231   1.51160   1.51616
 Alpha virt. eigenvalues --    1.51851   1.52899   1.53142   1.53660   1.54031
 Alpha virt. eigenvalues --    1.54469   1.54610   1.55417   1.55991   1.56236
 Alpha virt. eigenvalues --    1.56685   1.56978   1.57129   1.57849   1.58282
 Alpha virt. eigenvalues --    1.58667   1.58737   1.58839   1.59454   1.59619
 Alpha virt. eigenvalues --    1.60103   1.60940   1.61234   1.61656   1.62165
 Alpha virt. eigenvalues --    1.62871   1.64095   1.64777   1.65058   1.65206
 Alpha virt. eigenvalues --    1.66264   1.67006   1.67773   1.67970   1.68265
 Alpha virt. eigenvalues --    1.69064   1.70098   1.70757   1.71346   1.71951
 Alpha virt. eigenvalues --    1.74091   1.74561   1.75618   1.76038   1.76867
 Alpha virt. eigenvalues --    1.77236   1.77310   1.77693   1.77890   1.78063
 Alpha virt. eigenvalues --    1.78508   1.79180   1.79573   1.79868   1.80027
 Alpha virt. eigenvalues --    1.80649   1.80855   1.81117   1.81410   1.81830
 Alpha virt. eigenvalues --    1.82625   1.82831   1.83553   1.83777   1.84261
 Alpha virt. eigenvalues --    1.84416   1.84763   1.85047   1.85153   1.85562
 Alpha virt. eigenvalues --    1.85925   1.86384   1.86627   1.87020   1.87351
 Alpha virt. eigenvalues --    1.87855   1.88805   1.89411   1.89703   1.89785
 Alpha virt. eigenvalues --    1.90729   1.90937   1.91381   1.92108   1.92614
 Alpha virt. eigenvalues --    1.92925   1.93347   1.93509   1.93606   1.94056
 Alpha virt. eigenvalues --    1.94438   1.94793   1.95413   1.95602   1.95983
 Alpha virt. eigenvalues --    1.96142   1.96405   1.97160   1.97374   1.97736
 Alpha virt. eigenvalues --    1.98685   1.99040   1.99456   2.00469   2.00680
 Alpha virt. eigenvalues --    2.00854   2.01165   2.01408   2.02243   2.02366
 Alpha virt. eigenvalues --    2.02749   2.03300   2.03758   2.04098   2.04606
 Alpha virt. eigenvalues --    2.04883   2.06281   2.08065   2.09398   2.10376
 Alpha virt. eigenvalues --    2.12484   2.14454   2.15826   2.16133   2.16700
 Alpha virt. eigenvalues --    2.17199   2.17226   2.18110   2.18190   2.18502
 Alpha virt. eigenvalues --    2.18850   2.19172   2.19832   2.20075   2.20483
 Alpha virt. eigenvalues --    2.21079   2.21353   2.22079   2.22935   2.23227
 Alpha virt. eigenvalues --    2.23718   2.23979   2.24332   2.24951   2.25826
 Alpha virt. eigenvalues --    2.26725   2.27984   2.28990   2.29916   2.30963
 Alpha virt. eigenvalues --    2.35455   2.37320   2.38054   2.38901   2.39223
 Alpha virt. eigenvalues --    2.40244   2.40557   2.40876   2.41047   2.41530
 Alpha virt. eigenvalues --    2.42157   2.43014   2.43135   2.43277   2.43572
 Alpha virt. eigenvalues --    2.44844   2.45617   2.46552   2.46864   2.47623
 Alpha virt. eigenvalues --    2.48898   2.49542   2.51146   2.52238   2.53584
 Alpha virt. eigenvalues --    2.55091   2.55497   2.55965   2.56307   2.56404
 Alpha virt. eigenvalues --    2.57075   2.57529   2.58044   2.58601   2.61150
 Alpha virt. eigenvalues --    2.61814   2.62258   2.62436   2.62892   2.63340
 Alpha virt. eigenvalues --    2.63597   2.63737   2.64101   2.64332   2.64462
 Alpha virt. eigenvalues --    2.64944   2.64993   2.66170   2.66913   2.67944
 Alpha virt. eigenvalues --    2.70291   2.72285   2.72496   2.73039   2.73347
 Alpha virt. eigenvalues --    2.74067   2.74395   2.75430   2.77106   2.79584
 Alpha virt. eigenvalues --    2.82893   2.84157   2.86457   2.87260   2.87835
 Alpha virt. eigenvalues --    2.87842   2.88591   2.89109   2.89416   2.89594
 Alpha virt. eigenvalues --    2.90009   2.90794   2.91304   2.92766   2.93194
 Alpha virt. eigenvalues --    2.93510   2.94175   2.94391   2.94881   2.95361
 Alpha virt. eigenvalues --    2.95761   2.96655   2.96797   2.97026   2.97143
 Alpha virt. eigenvalues --    2.98471   2.98872   2.99040   2.99477   3.00642
 Alpha virt. eigenvalues --    3.02178   3.02804   3.03565   3.04449   3.05591
 Alpha virt. eigenvalues --    3.06121   3.07133   3.07613   3.07709   3.08646
 Alpha virt. eigenvalues --    3.09241   3.09868   3.10166   3.11402   3.11847
 Alpha virt. eigenvalues --    3.12170   3.13594   3.19777   3.20569   3.35715
 Alpha virt. eigenvalues --    3.57740   3.73672   3.78238   3.88147  45.27123
  Beta  occ. eigenvalues --  -77.08698 -77.08467 -19.19338 -19.11198 -19.06794
  Beta  occ. eigenvalues --  -14.31819 -10.28248 -10.21195 -10.20993 -10.20893
  Beta  occ. eigenvalues --  -10.20623 -10.20583 -10.20518 -10.19046 -10.18993
  Beta  occ. eigenvalues --  -10.17778 -10.17604 -10.17530 -10.17527 -10.17472
  Beta  occ. eigenvalues --  -10.17378 -10.17345 -10.17294 -10.17226 -10.17120
  Beta  occ. eigenvalues --  -10.17100 -10.17054 -10.16648 -10.16466 -10.15575
  Beta  occ. eigenvalues --   -6.57898  -6.57648  -4.74473  -4.74448  -4.74254
  Beta  occ. eigenvalues --   -4.74236  -4.74203  -4.73983  -3.03288  -1.87790
  Beta  occ. eigenvalues --   -1.86382  -1.86166  -1.09998  -0.91811  -0.90488
  Beta  occ. eigenvalues --   -0.88631  -0.82215  -0.81817  -0.79834  -0.79517
  Beta  occ. eigenvalues --   -0.77955  -0.75933  -0.72772  -0.68717  -0.68087
  Beta  occ. eigenvalues --   -0.67975  -0.67809  -0.67553  -0.67122  -0.67024
  Beta  occ. eigenvalues --   -0.66772  -0.66596  -0.62912  -0.61346  -0.57667
  Beta  occ. eigenvalues --   -0.57473  -0.55432  -0.54512  -0.54141  -0.51235
  Beta  occ. eigenvalues --   -0.50686  -0.48879  -0.47687  -0.47074  -0.46950
  Beta  occ. eigenvalues --   -0.45865  -0.45669  -0.45188  -0.44998  -0.44475
  Beta  occ. eigenvalues --   -0.44401  -0.44035  -0.43856  -0.43531  -0.43271
  Beta  occ. eigenvalues --   -0.42676  -0.42531  -0.42228  -0.42071  -0.41921
  Beta  occ. eigenvalues --   -0.41246  -0.40834  -0.40364  -0.39751  -0.39175
  Beta  occ. eigenvalues --   -0.39006  -0.38674  -0.38045  -0.37776  -0.37475
  Beta  occ. eigenvalues --   -0.37241  -0.37140  -0.37014  -0.36536  -0.36135
  Beta  occ. eigenvalues --   -0.35558  -0.35518  -0.35327  -0.35088  -0.34774
  Beta  occ. eigenvalues --   -0.34436  -0.34271  -0.33794  -0.33642  -0.33168
  Beta  occ. eigenvalues --   -0.32797  -0.32433  -0.32305  -0.32139  -0.31151
  Beta  occ. eigenvalues --   -0.31004  -0.30166  -0.29532  -0.29350  -0.28748
  Beta  occ. eigenvalues --   -0.28126  -0.26785  -0.26142  -0.25508  -0.23150
  Beta  occ. eigenvalues --   -0.22497  -0.21611
  Beta virt. eigenvalues --   -0.11139  -0.02890  -0.01260  -0.00052   0.00583
  Beta virt. eigenvalues --    0.00747   0.01752   0.04320   0.05251   0.06121
  Beta virt. eigenvalues --    0.06363   0.07077   0.07443   0.07845   0.08129
  Beta virt. eigenvalues --    0.08588   0.08921   0.09100   0.09501   0.10126
  Beta virt. eigenvalues --    0.10217   0.10569   0.10823   0.11040   0.11310
  Beta virt. eigenvalues --    0.11951   0.12362   0.12492   0.13221   0.13449
  Beta virt. eigenvalues --    0.13599   0.13949   0.14051   0.14243   0.14360
  Beta virt. eigenvalues --    0.15001   0.15223   0.15686   0.15948   0.16272
  Beta virt. eigenvalues --    0.16539   0.16750   0.17220   0.17484   0.17642
  Beta virt. eigenvalues --    0.17893   0.18100   0.18262   0.18536   0.19016
  Beta virt. eigenvalues --    0.19433   0.20113   0.20428   0.20542   0.20823
  Beta virt. eigenvalues --    0.20956   0.21330   0.21442   0.21688   0.21733
  Beta virt. eigenvalues --    0.22199   0.22579   0.23196   0.23798   0.24417
  Beta virt. eigenvalues --    0.24563   0.24861   0.25057   0.25576   0.26135
  Beta virt. eigenvalues --    0.26484   0.27155   0.27407   0.27797   0.28874
  Beta virt. eigenvalues --    0.29521   0.30913   0.31203   0.32005   0.32560
  Beta virt. eigenvalues --    0.34036   0.34857   0.35521   0.36716   0.37579
  Beta virt. eigenvalues --    0.38756   0.39809   0.40147   0.40817   0.40881
  Beta virt. eigenvalues --    0.41158   0.41793   0.42245   0.42543   0.43300
  Beta virt. eigenvalues --    0.43626   0.43879   0.44249   0.44577   0.45566
  Beta virt. eigenvalues --    0.45882   0.46801   0.46906   0.48244   0.48464
  Beta virt. eigenvalues --    0.49539   0.50212   0.50323   0.51584   0.52435
  Beta virt. eigenvalues --    0.52808   0.53575   0.53812   0.54326   0.54726
  Beta virt. eigenvalues --    0.54887   0.54982   0.55583   0.56447   0.56872
  Beta virt. eigenvalues --    0.57128   0.57949   0.58367   0.58738   0.59009
  Beta virt. eigenvalues --    0.59231   0.59810   0.60046   0.60946   0.61046
  Beta virt. eigenvalues --    0.61365   0.61801   0.62078   0.62565   0.63356
  Beta virt. eigenvalues --    0.63466   0.63588   0.64252   0.64501   0.64731
  Beta virt. eigenvalues --    0.65105   0.65251   0.65559   0.65561   0.65936
  Beta virt. eigenvalues --    0.66201   0.66342   0.66693   0.66788   0.66920
  Beta virt. eigenvalues --    0.67234   0.67648   0.67922   0.68035   0.68435
  Beta virt. eigenvalues --    0.68667   0.68817   0.69039   0.69241   0.69522
  Beta virt. eigenvalues --    0.69679   0.70119   0.70409   0.70704   0.71052
  Beta virt. eigenvalues --    0.71475   0.71744   0.71862   0.72036   0.72304
  Beta virt. eigenvalues --    0.72738   0.72900   0.72960   0.73148   0.73497
  Beta virt. eigenvalues --    0.73824   0.73970   0.74271   0.74600   0.75063
  Beta virt. eigenvalues --    0.75339   0.75509   0.75941   0.76198   0.76487
  Beta virt. eigenvalues --    0.76721   0.77019   0.77524   0.78068   0.78401
  Beta virt. eigenvalues --    0.78952   0.79227   0.79501   0.79843   0.80546
  Beta virt. eigenvalues --    0.80722   0.80899   0.81503   0.81937   0.82172
  Beta virt. eigenvalues --    0.82410   0.83058   0.83481   0.84127   0.84507
  Beta virt. eigenvalues --    0.84849   0.85348   0.86424   0.87371   0.87656
  Beta virt. eigenvalues --    0.87952   0.89285   0.89599   0.89988   0.90709
  Beta virt. eigenvalues --    0.92179   0.92448   0.92660   0.94282   0.94953
  Beta virt. eigenvalues --    0.95935   0.96649   0.96725   0.98877   0.99392
  Beta virt. eigenvalues --    1.00871   1.01318   1.02404   1.03076   1.03880
  Beta virt. eigenvalues --    1.04623   1.04723   1.05480   1.06192   1.06503
  Beta virt. eigenvalues --    1.06960   1.07996   1.08739   1.09439   1.09815
  Beta virt. eigenvalues --    1.11315   1.12360   1.12787   1.13426   1.15285
  Beta virt. eigenvalues --    1.16170   1.16408   1.17067   1.17786   1.18982
  Beta virt. eigenvalues --    1.19711   1.20254   1.21213   1.21377   1.21686
  Beta virt. eigenvalues --    1.22319   1.23319   1.23582   1.24733   1.24910
  Beta virt. eigenvalues --    1.25685   1.26716   1.27304   1.27805   1.28738
  Beta virt. eigenvalues --    1.29189   1.29967   1.30314   1.30410   1.31407
  Beta virt. eigenvalues --    1.32522   1.33275   1.34302   1.34492   1.35139
  Beta virt. eigenvalues --    1.38314   1.39638   1.41582   1.42518   1.44052
  Beta virt. eigenvalues --    1.45387   1.47256   1.48411   1.49302   1.50336
  Beta virt. eigenvalues --    1.51277   1.51829   1.51971   1.53013   1.53250
  Beta virt. eigenvalues --    1.53702   1.54142   1.54606   1.54645   1.55464
  Beta virt. eigenvalues --    1.56068   1.56364   1.56724   1.57145   1.57208
  Beta virt. eigenvalues --    1.57937   1.58334   1.58721   1.58806   1.58890
  Beta virt. eigenvalues --    1.59555   1.59719   1.60209   1.61058   1.61357
  Beta virt. eigenvalues --    1.61854   1.62275   1.62959   1.64189   1.64887
  Beta virt. eigenvalues --    1.65177   1.65339   1.66395   1.67216   1.67907
  Beta virt. eigenvalues --    1.68161   1.68552   1.69195   1.70218   1.71192
  Beta virt. eigenvalues --    1.71614   1.72360   1.74355   1.74771   1.75888
  Beta virt. eigenvalues --    1.76354   1.77016   1.77445   1.77608   1.77765
  Beta virt. eigenvalues --    1.77992   1.78217   1.78597   1.79386   1.79699
  Beta virt. eigenvalues --    1.80104   1.80203   1.80834   1.81019   1.81445
  Beta virt. eigenvalues --    1.81580   1.82132   1.82875   1.83004   1.83665
  Beta virt. eigenvalues --    1.83897   1.84348   1.84509   1.84915   1.85254
  Beta virt. eigenvalues --    1.85358   1.85733   1.86042   1.86568   1.86985
  Beta virt. eigenvalues --    1.87156   1.87918   1.89042   1.89225   1.89778
  Beta virt. eigenvalues --    1.90093   1.90419   1.90996   1.91021   1.91864
  Beta virt. eigenvalues --    1.92309   1.92734   1.92992   1.93440   1.93573
  Beta virt. eigenvalues --    1.93787   1.94120   1.94478   1.94945   1.95522
  Beta virt. eigenvalues --    1.95789   1.96268   1.96367   1.96920   1.97444
  Beta virt. eigenvalues --    1.97706   1.98124   1.99267   1.99427   1.99643
  Beta virt. eigenvalues --    2.00689   2.00744   2.00976   2.01477   2.01595
  Beta virt. eigenvalues --    2.02374   2.02548   2.02854   2.03710   2.04010
  Beta virt. eigenvalues --    2.04449   2.04938   2.05263   2.07306   2.09054
  Beta virt. eigenvalues --    2.09546   2.10508   2.13257   2.15077   2.16015
  Beta virt. eigenvalues --    2.16226   2.16840   2.17298   2.17370   2.18198
  Beta virt. eigenvalues --    2.18244   2.18547   2.19055   2.19241   2.19903
  Beta virt. eigenvalues --    2.20246   2.20594   2.21141   2.21407   2.22169
  Beta virt. eigenvalues --    2.23006   2.23317   2.23853   2.24156   2.24448
  Beta virt. eigenvalues --    2.25212   2.25966   2.27116   2.28405   2.29382
  Beta virt. eigenvalues --    2.30449   2.31232   2.35604   2.37762   2.38414
  Beta virt. eigenvalues --    2.38956   2.39303   2.40474   2.40824   2.41212
  Beta virt. eigenvalues --    2.41456   2.41615   2.42324   2.43064   2.43384
  Beta virt. eigenvalues --    2.43401   2.43714   2.45220   2.45695   2.46699
  Beta virt. eigenvalues --    2.46996   2.47692   2.49216   2.49821   2.51344
  Beta virt. eigenvalues --    2.52406   2.53839   2.55123   2.55522   2.56016
  Beta virt. eigenvalues --    2.56344   2.56434   2.57162   2.57556   2.58236
  Beta virt. eigenvalues --    2.58655   2.61189   2.61775   2.62279   2.62452
  Beta virt. eigenvalues --    2.62920   2.63570   2.63652   2.63764   2.64124
  Beta virt. eigenvalues --    2.64299   2.64582   2.64954   2.65208   2.66460
  Beta virt. eigenvalues --    2.66974   2.68232   2.70728   2.72389   2.72860
  Beta virt. eigenvalues --    2.73198   2.73480   2.74147   2.74682   2.76676
  Beta virt. eigenvalues --    2.77867   2.80155   2.83590   2.84247   2.86604
  Beta virt. eigenvalues --    2.87292   2.87860   2.87899   2.88669   2.89178
  Beta virt. eigenvalues --    2.89442   2.89623   2.90059   2.90813   2.91355
  Beta virt. eigenvalues --    2.92844   2.93216   2.93790   2.94219   2.94515
  Beta virt. eigenvalues --    2.95038   2.95422   2.95802   2.96705   2.96829
  Beta virt. eigenvalues --    2.97052   2.97291   2.98539   2.99026   2.99324
  Beta virt. eigenvalues --    3.00495   3.00908   3.02257   3.02876   3.04035
  Beta virt. eigenvalues --    3.04948   3.05648   3.06238   3.07191   3.07766
  Beta virt. eigenvalues --    3.07919   3.08745   3.09324   3.09925   3.10225
  Beta virt. eigenvalues --    3.11484   3.12149   3.12311   3.13645   3.19695
  Beta virt. eigenvalues --    3.20488   3.36036   3.57975   3.73650   3.78911
  Beta virt. eigenvalues --    3.88179  45.20665
          Condensed to atoms (all electrons):
          Atomic-Atomic Spin Densities.
 Mulliken charges and spin densities:
               1          2
     1  P    0.313884   0.062385
     2  N   -0.295671   0.228861
     3  C    0.035709  -0.016176
     4  H    0.052594   0.000770
     5  H    0.071690   0.011887
     6  O   -0.507672   0.000054
     7  P    0.320984   0.093990
     8  C   -0.020054   0.178141
     9  C   -0.032609  -0.090587
    10  H   -0.021597   0.002911
    11  C   -0.067700   0.450583
    12  H   -0.024909  -0.022981
    13  C   -0.051541  -0.090842
    14  H   -0.021912   0.002841
    15  C    0.009801   0.177565
    16  C    0.012224  -0.019533
    17  H    0.060739  -0.000558
    18  H    0.079096   0.008792
    19  Ru  -0.103931   0.808807
    20  H    0.168439   0.000519
    21  C   -0.375121  -0.001597
    22  C   -0.383813   0.008317
    23  C   -0.386084   0.015176
    24  C   -0.400762   0.003461
    25  C    0.088190   0.000365
    26  H    0.016104   0.000073
    27  H    0.045400   0.000184
    28  H    0.017181   0.000147
    29  C    0.082412   0.000300
    30  H    0.016178   0.000317
    31  H    0.036560   0.002201
    32  H    0.012858   0.000018
    33  C    0.077742  -0.000218
    34  H    0.014603   0.000817
    35  H    0.037721   0.000031
    36  H    0.029647   0.000006
    37  C    0.078104   0.001740
    38  H    0.014611  -0.000075
    39  H    0.018620   0.002421
    40  H    0.028438  -0.000038
    41  C    0.073742  -0.000510
    42  H    0.017758   0.000603
    43  H    0.037349   0.000037
    44  H    0.035809   0.000889
    45  C    0.059222   0.000501
    46  H    0.031302  -0.000690
    47  H    0.039341   0.000382
    48  H    0.020943   0.000257
    49  C    0.077763   0.001132
    50  H    0.006338   0.000250
    51  H    0.012295   0.000432
    52  H    0.004252   0.000078
    53  C    0.078019   0.001510
    54  H    0.011731   0.001118
    55  H    0.035000  -0.000015
    56  H    0.027321  -0.000010
    57  C    0.076835   0.001701
    58  H    0.015827   0.001429
    59  H    0.042098  -0.000869
    60  H    0.008443  -0.000493
    61  C    0.075959  -0.000028
    62  H    0.041215   0.000322
    63  H    0.023230   0.000549
    64  H    0.015149  -0.000116
    65  C    0.079344   0.002691
    66  H    0.012432  -0.000085
    67  H    0.016037   0.002669
    68  H    0.024533  -0.000040
    69  C    0.072896  -0.000365
    70  H    0.014919   0.000496
    71  H    0.038532   0.000023
    72  H    0.032063   0.000412
    73  O   -0.421331   0.227795
    74  C    0.114361  -0.041000
    75  H    0.208850  -0.004179
    76  O   -0.105735  -0.017952
 Sum of Mulliken charges =  -0.00000   2.00000
 Mulliken charges and spin densities with hydrogens summed into heavy atoms:
               1          2
     1  P    0.313884   0.062385
     2  N   -0.295671   0.228861
     3  C    0.159993  -0.003519
     6  O   -0.339232   0.000573
     7  P    0.320984   0.093990
     8  C   -0.020054   0.178141
     9  C   -0.054205  -0.087677
    11  C   -0.092609   0.427602
    13  C   -0.073453  -0.088001
    15  C    0.009801   0.177565
    16  C    0.152059  -0.011298
    19  Ru  -0.103931   0.808807
    21  C   -0.375121  -0.001597
    22  C   -0.383813   0.008317
    23  C   -0.386084   0.015176
    24  C   -0.400762   0.003461
    25  C    0.166876   0.000770
    29  C    0.148008   0.002835
    33  C    0.159714   0.000636
    37  C    0.139773   0.004048
    41  C    0.164658   0.001019
    45  C    0.150808   0.000450
    49  C    0.100648   0.001892
    53  C    0.152071   0.002603
    57  C    0.143203   0.001768
    61  C    0.155553   0.000728
    65  C    0.132347   0.005236
    69  C    0.158410   0.000567
    73  O   -0.212481   0.223616
    74  C    0.114361  -0.041000
    76  O   -0.105735  -0.017952
 Electronic spatial extent (au):  <R**2>=          13430.5007
 Charge=              0.0000 electrons
 Dipole moment (field-independent basis, Debye):
    X=              2.3594    Y=             -0.2264    Z=              0.5129  Tot=              2.4251
 Quadrupole moment (field-independent basis, Debye-Ang):
   XX=           -168.7194   YY=           -238.9650   ZZ=           -230.6205
   XY=             -4.2504   XZ=            -10.1542   YZ=              6.6414
 Traceless Quadrupole moment (field-independent basis, Debye-Ang):
   XX=             44.0489   YY=            -26.1967   ZZ=            -17.8522
   XY=             -4.2504   XZ=            -10.1542   YZ=              6.6414
 Octapole moment (field-independent basis, Debye-Ang**2):
  XXX=             16.2267  YYY=            -70.6326  ZZZ=             -5.7781  XYY=              8.2374
  XXY=            -32.4936  XXZ=              0.0171  XZZ=             11.8097  YZZ=            -24.2598
  YYZ=            -10.3960  XYZ=              8.1588
 Hexadecapole moment (field-independent basis, Debye-Ang**3):
 XXXX=         -10148.0549 YYYY=          -4484.2462 ZZZZ=          -3368.0777 XXXY=            -20.0293
 XXXZ=            -53.9188 YYYX=            -23.3504 YYYZ=             74.1336 ZZZX=            -36.8136
 ZZZY=             30.3794 XXYY=          -2413.8210 XXZZ=          -2232.3866 YYZZ=          -1271.0148
 XXYZ=              7.2857 YYXZ=            -72.8497 ZZXY=            -14.5036
 N-N= 4.522865979903D+03 E-N=-1.369989332642D+04  KE= 1.921312410914D+03
 Unable to Open any file for archive entry.
 1\1\GINC-NODE061\SP\UB3LYP TD-FC\def2SVP\C24H45N1O3P2Ru1(3)\DO57CIG\20
 -Sep-2024\0\\# td=(triplets,nstates=5,conver=3) b3lyp scrf=(smd,solven
 t=water) def2svp empiricaldispersion=gd3bj int=ultrafine scf=xqc\\A_Ru
 _TDDFT_B3LYP_def2SVP_smd_water_Interpol_Geom_1.1_T_T_10\\0,3\P,0,2.401
 4515,-0.19940783,-0.11653614\N,0,-0.0417056,1.45709914,-0.15991115\C,0
 ,2.17684266,1.27599832,-1.21093877\H,0,3.10560021,1.85084086,-1.323932
 73\H,0,1.92065794,0.8398456,-2.19163214\O,0,-0.12698867,-0.95352372,-1
 .98533833\P,0,-2.44022781,-0.13389154,0.13621616\C,0,1.06399807,2.1308
 1676,-0.68118341\C,0,1.16283897,3.5064843,-0.65037318\H,0,2.0576877,3.
 96926312,-1.07394317\C,0,0.14264062,4.300649,-0.06991921\H,0,0.2117098
 3,5.38851807,-0.03753096\C,0,-0.96830795,3.60791689,0.47751213\H,0,-1.
 79895085,4.15512666,0.93065105\C,0,-1.04039941,2.23162234,0.43061484\C
 ,0,-2.23444828,1.49330518,0.97970609\H,0,-3.14555958,2.10445086,0.9179
 1196\H,0,-2.08372509,1.24191747,2.0443368\Ru,0,-0.03515366,-0.73847306
 ,0.09003238\H,0,0.61429435,-1.51063641,-2.24393095\C,0,-3.27099703,0.2
 3643078,-1.53875054\C,0,-3.60871586,-1.1381009,1.26145236\C,0,3.544046
 41,-1.37820976,-1.09399388\C,0,3.2720763,0.40056297,1.46936053\C,0,2.4
 711174,1.58585945,2.04541457\H,0,2.56334609,2.4772144,1.41352985\H,0,1
 .40413402,1.37843629,2.17738034\H,0,2.89040939,1.82745664,3.03535958\C
 ,0,3.32143418,-0.74597696,2.49978924\H,0,3.47618662,-0.31697776,3.5028
 4278\H,0,2.39902608,-1.33896375,2.5309077\H,0,4.15219695,-1.43319955,2
 .30465328\C,0,4.69740401,0.90769401,1.20115918\H,0,5.08756207,1.349998
 61,2.13297104\H,0,5.38264886,0.10177074,0.91037489\H,0,4.71790341,1.69
 02485,0.42834355\C,0,4.66118628,-0.59932262,-1.80882198\H,0,5.30072954
 ,-0.03226932,-1.12406888\H,0,5.3003342,-1.32505543,-2.33908416\H,0,4.2
 5546616,0.09141408,-2.56170859\C,0,4.13805583,-2.43902927,-0.15677548\
 H,0,4.63524018,-3.20763167,-0.77059134\H,0,4.89212151,-2.0231797,0.522
 346\H,0,3.36012548,-2.93856021,0.4403248\C,0,2.72671653,-2.10785405,-2
 .16923342\H,0,1.93250402,-2.72701195,-1.72911553\H,0,2.30148359,-1.411
 83453,-2.90613029\H,0,3.40345479,-2.78239637,-2.71790939\C,0,-3.257463
 59,-1.02312845,-2.42230455\H,0,-3.59331559,-0.74215905,-3.43474199\H,0
 ,-2.24325835,-1.43533984,-2.49505471\H,0,-3.93781315,-1.80005175,-2.05
 523848\C,0,-4.71207856,0.73980541,-1.3707937\H,0,-5.07924025,1.0600341
 8,-2.3602921\H,0,-5.39139392,-0.04201357,-1.00787391\H,0,-4.77673272,1
 .60800661,-0.698094\C,0,-2.46269391,1.34549769,-2.23772825\H,0,-2.5162
 4508,2.29805469,-1.69311445\H,0,-1.40970542,1.07322523,-2.36082027\H,0
 ,-2.90245256,1.505756,-3.23584035\C,0,-2.8097869,-1.67355409,2.4578214
 8\H,0,-1.99563744,-2.34167779,2.14748543\H,0,-2.39572946,-0.86448778,3
 .07248137\H,0,-3.49696034,-2.25315913,3.09547054\C,0,-4.74785946,-0.26
 559365,1.81623153\H,0,-5.38790163,0.15865195,1.03559599\H,0,-5.3822735
 4,-0.89710949,2.46051151\H,0,-4.36441103,0.55545932,2.43885142\C,0,-4.
 17588755,-2.33889639,0.49113627\H,0,-4.69787541,-2.99721241,1.20454002
 \H,0,-4.90332959,-2.03968696,-0.27399128\H,0,-3.37964957,-2.9282528,0.
 01150931\O,0,-0.18846521,-2.72552894,0.07131682\C,0,0.0267522,-0.63669
 007,1.92540883\H,0,-0.25065949,-2.87839415,-0.88841403\O,0,0.08261557,
 -0.58098941,3.08410409\\Version=ES64L-G16RevC.02\State=3-A\HF=-1998.92
 32189\S2=2.021948\S2-1=0.\S2A=2.000296\RMSD=1.452e-09\PG=C01 [X(C24H45
 N1O3P2Ru1)]\\@
 The archive entry for this job was punched.


 WORK FAITHFULLY FOR EIGHT HOURS A DAY AND DON'T WORRY.
 IN TIME YOU MAY BECOME BOSS AND WORK TWELVE HOURS A DAY
 AND HAVE ALL THE WORRY.
 Job cpu time:       0 days 11 hours  9 minutes  5.6 seconds.
 Elapsed time:       0 days  0 hours 29 minutes 11.6 seconds.
 File lengths (MBytes):  RWF=   3388 Int=      0 D2E=      0 Chk=    130 Scr=      1
 Normal termination of Gaussian 16 at Fri Sep 20 05:47:02 2024.
