 Entering Gaussian System, Link 0=g16
 Input=A_Ru_Crossing_Region_TDDFT_B3LYP_def2SVP_smd_water_Interpol_Geom_1_1_T_T_10.gjf
 Output=A_Ru_Crossing_Region_TDDFT_B3LYP_def2SVP_smd_water_Interpol_Geom_1_1_T_T_10.log
 Initial command:
 /cluster/apps/gaussian/g16_c02/g16/l1.exe "/beegfs/do57cig/gauss2132512/Gau-63324.inp" -scrdir="/beegfs/do57cig/gauss2132512/"
 Default CPUs for threads: 0-23
 Default is to use a total of  24 processors:
                               24 via shared-memory
                                1 via Linda
 Entering Link 1 = /cluster/apps/gaussian/g16_c02/g16/l1.exe PID=     63325.
  
 Copyright (c) 1988-2021, Gaussian, Inc.  All Rights Reserved.
  
 This is part of the Gaussian(R) 16 program.  It is based on
 the Gaussian(R) 09 system (copyright 2009, Gaussian, Inc.),
 the Gaussian(R) 03 system (copyright 2003, Gaussian, Inc.),
 the Gaussian(R) 98 system (copyright 1998, Gaussian, Inc.),
 the Gaussian(R) 94 system (copyright 1995, Gaussian, Inc.),
 the Gaussian 92(TM) system (copyright 1992, Gaussian, Inc.),
 the Gaussian 90(TM) system (copyright 1990, Gaussian, Inc.),
 the Gaussian 88(TM) system (copyright 1988, Gaussian, Inc.),
 the Gaussian 86(TM) system (copyright 1986, Carnegie Mellon
 University), and the Gaussian 82(TM) system (copyright 1983,
 Carnegie Mellon University). Gaussian is a federally registered
 trademark of Gaussian, Inc.
  
 This software contains proprietary and confidential information,
 including trade secrets, belonging to Gaussian, Inc.
  
 This software is provided under written license and may be
 used, copied, transmitted, or stored only in accord with that
 written license.
  
 The following legend is applicable only to US Government
 contracts under FAR:
  
                    RESTRICTED RIGHTS LEGEND
  
 Use, reproduction and disclosure by the US Government is
 subject to restrictions as set forth in subparagraphs (a)
 and (c) of the Commercial Computer Software - Restricted
 Rights clause in FAR 52.227-19.
  
 Gaussian, Inc.
 340 Quinnipiac St., Bldg. 40, Wallingford CT 06492
  
  
 ---------------------------------------------------------------
 Warning -- This program may not be used in any manner that
 competes with the business of Gaussian, Inc. or will provide
 assistance to any competitor of Gaussian, Inc.  The licensee
 of this program is prohibited from giving any competitor of
 Gaussian, Inc. access to this program.  By using this program,
 the user acknowledges that Gaussian, Inc. is engaged in the
 business of creating and licensing software in the field of
 computational chemistry and represents and warrants to the
 licensee that it is not a competitor of Gaussian, Inc. and that
 it will not use this program in any manner prohibited above.
 ---------------------------------------------------------------
  

 Cite this work as:
 Gaussian 16, Revision C.02,
 M. J. Frisch, G. W. Trucks, H. B. Schlegel, G. E. Scuseria, 
 M. A. Robb, J. R. Cheeseman, G. Scalmani, V. Barone, 
 G. A. Petersson, H. Nakatsuji, X. Li, M. Caricato, A. V. Marenich, 
 J. Bloino, B. G. Janesko, R. Gomperts, B. Mennucci, H. P. Hratchian, 
 J. V. Ortiz, A. F. Izmaylov, J. L. Sonnenberg, D. Williams-Young, 
 F. Ding, F. Lipparini, F. Egidi, J. Goings, B. Peng, A. Petrone, 
 T. Henderson, D. Ranasinghe, V. G. Zakrzewski, J. Gao, N. Rega, 
 G. Zheng, W. Liang, M. Hada, M. Ehara, K. Toyota, R. Fukuda, 
 J. Hasegawa, M. Ishida, T. Nakajima, Y. Honda, O. Kitao, H. Nakai, 
 T. Vreven, K. Throssell, J. A. Montgomery, Jr., J. E. Peralta, 
 F. Ogliaro, M. J. Bearpark, J. J. Heyd, E. N. Brothers, K. N. Kudin, 
 V. N. Staroverov, T. A. Keith, R. Kobayashi, J. Normand, 
 K. Raghavachari, A. P. Rendell, J. C. Burant, S. S. Iyengar, 
 J. Tomasi, M. Cossi, J. M. Millam, M. Klene, C. Adamo, R. Cammi, 
 J. W. Ochterski, R. L. Martin, K. Morokuma, O. Farkas, 
 J. B. Foresman, and D. J. Fox, Gaussian, Inc., Wallingford CT, 2019.
 
 ******************************************
 Gaussian 16:  ES64L-G16RevC.02  7-Dec-2021
                22-Sep-2024 
 ******************************************
 %Oldchk=A_Ru_TDDFT_B3LYP_def2SVP_smd_water_Interpol_Geom_1.1_T_T_10.chk
 %chk=A_Ru_Crossing_Region_TDDFT_B3LYP_def2SVP_smd_water_Interpol_Geom_1_1_T_T_10
 .chk
 SetSPE:  set environment variable "OMP_PROC_BIND" = "true"
 SetSPE:  set environment variable "OMP_PLACES" = "{0},{1},{2},{3},{4},{5},{6},{7},{8},{9},{10},{11},{12},{13},{14},{15},{16},{17},{18},{19},{20},{21},{22},{23}"
 Copying data from "A_Ru_TDDFT_B3LYP_def2SVP_smd_water_Interpol_Geom_1.1_T_T_10.chk" to current chk file "A_Ru_Crossing_Region_TDDFT_B3LYP_def2SVP_smd_water_Interpol_Geom_1_1_T_T_10.chk"
 IOpt=  2 FromEx=T IUOpen= 4 IOptOp= 5 NList=   0 IFRang= 0 IUIn= 4 IUOut= 2.
 ----------------------------------------------------------------------
 # td=(triplets,nstates=5,conver=3,root=1) b3lyp scrf=(smd,solvent=wate
 r) def2svp empiricaldispersion=gd3bj int=ultrafine scf=xqc guess=read 
 geom=check density=current
 ----------------------------------------------------------------------
 1/29=2,30=1,38=1,172=1/1;
 2/12=2,40=1/2;
 3/5=43,7=101,11=9,14=-4,25=1,30=1,70=32201,71=1,72=1,74=-5,75=-5,116=-2,124=41/1,2,3,8;
 4/5=1/1;
 5/5=2,8=3,13=1,38=6,53=1/2,8;
 8/6=1,10=1,107=1,108=5/1;
 9/8=1,9=3,15=1,41=5,42=1,48=3,70=2/14;
 10/5=4,13=10,28=1/2;
 6/7=2,8=2,9=2,10=2,22=-1/1;
 99/5=1,9=1/99;
 --------------------------------------------------------------
 tBut_Ru_Cis_T_Crossing_region_Interpol_struc_1_1_T_root_1_MLCT
 --------------------------------------------------------------
 Structure from the checkpoint file:  "A_Ru_Crossing_Region_TDDFT_B3LYP_def2SVP_smd_water_Interpol_Geom_1_1_T_T_10.chk"
 Charge =  0 Multiplicity = 3
 Z-Matrix found in chk file.
 P,0,2.4014515,-0.19940783,-0.11653614
 N,0,-0.0417056,1.45709914,-0.15991115
 C,0,2.17684266,1.27599832,-1.21093877
 H,0,3.10560021,1.85084086,-1.32393273
 H,0,1.92065794,0.8398456,-2.19163214
 O,0,-0.12698867,-0.95352372,-1.98533833
 P,0,-2.44022781,-0.13389154,0.13621616
 C,0,1.06399807,2.13081676,-0.68118341
 C,0,1.16283897,3.5064843,-0.65037318
 H,0,2.0576877,3.96926312,-1.07394317
 C,0,0.14264062,4.300649,-0.06991921
 H,0,0.21170983,5.38851807,-0.03753096
 C,0,-0.96830795,3.60791689,0.47751213
 H,0,-1.79895085,4.15512666,0.93065105
 C,0,-1.04039941,2.23162234,0.43061484
 C,0,-2.23444828,1.49330518,0.97970609
 H,0,-3.14555958,2.10445086,0.91791196
 H,0,-2.08372509,1.24191747,2.0443368
 Ru,0,-0.03515366,-0.73847306,0.09003238
 H,0,0.61429435,-1.51063641,-2.24393095
 C,0,-3.27099703,0.23643078,-1.53875054
 C,0,-3.60871586,-1.1381009,1.26145236
 C,0,3.54404641,-1.37820976,-1.09399388
 C,0,3.2720763,0.40056297,1.46936053
 C,0,2.4711174,1.58585945,2.04541457
 H,0,2.56334609,2.4772144,1.41352985
 H,0,1.40413402,1.37843629,2.17738034
 H,0,2.89040939,1.82745664,3.03535958
 C,0,3.32143418,-0.74597696,2.49978924
 H,0,3.47618662,-0.31697776,3.50284278
 H,0,2.39902608,-1.33896375,2.5309077
 H,0,4.15219695,-1.43319955,2.30465328
 C,0,4.69740401,0.90769401,1.20115918
 H,0,5.08756207,1.34999861,2.13297104
 H,0,5.38264886,0.10177074,0.91037489
 H,0,4.71790341,1.6902485,0.42834355
 C,0,4.66118628,-0.59932262,-1.80882198
 H,0,5.30072954,-0.03226932,-1.12406888
 H,0,5.3003342,-1.32505543,-2.33908416
 H,0,4.25546616,0.09141408,-2.56170859
 C,0,4.13805583,-2.43902927,-0.15677548
 H,0,4.63524018,-3.20763167,-0.77059134
 H,0,4.89212151,-2.0231797,0.522346
 H,0,3.36012548,-2.93856021,0.4403248
 C,0,2.72671653,-2.10785405,-2.16923342
 H,0,1.93250402,-2.72701195,-1.72911553
 H,0,2.30148359,-1.41183453,-2.90613029
 H,0,3.40345479,-2.78239637,-2.71790939
 C,0,-3.25746359,-1.02312845,-2.42230455
 H,0,-3.59331559,-0.74215905,-3.43474199
 H,0,-2.24325835,-1.43533984,-2.49505471
 H,0,-3.93781315,-1.80005175,-2.05523848
 C,0,-4.71207856,0.73980541,-1.3707937
 H,0,-5.07924025,1.06003418,-2.3602921
 H,0,-5.39139392,-0.04201357,-1.00787391
 H,0,-4.77673272,1.60800661,-0.698094
 C,0,-2.46269391,1.34549769,-2.23772825
 H,0,-2.51624508,2.29805469,-1.69311445
 H,0,-1.40970542,1.07322523,-2.36082027
 H,0,-2.90245256,1.505756,-3.23584035
 C,0,-2.8097869,-1.67355409,2.45782148
 H,0,-1.99563744,-2.34167779,2.14748543
 H,0,-2.39572946,-0.86448778,3.07248137
 H,0,-3.49696034,-2.25315913,3.09547054
 C,0,-4.74785946,-0.26559365,1.81623153
 H,0,-5.38790163,0.15865195,1.03559599
 H,0,-5.38227354,-0.89710949,2.46051151
 H,0,-4.36441103,0.55545932,2.43885142
 C,0,-4.17588755,-2.33889639,0.49113627
 H,0,-4.69787541,-2.99721241,1.20454002
 H,0,-4.90332959,-2.03968696,-0.27399128
 H,0,-3.37964957,-2.9282528,0.01150931
 O,0,-0.18846521,-2.72552894,0.07131682
 C,0,0.0267522,-0.63669007,1.92540883
 H,0,-0.25065949,-2.87839415,-0.88841403
 O,0,0.08261557,-0.58098941,3.08410409
 Recover connectivity data from disk.
 Stoichiometry    C24H45NO3P2Ru(3)
 Framework group  C1[X(C24H45NO3P2Ru)]
 Deg. of freedom   222
 Full point group                 C1      NOp   1
 Largest Abelian subgroup         C1      NOp   1
 Largest concise Abelian subgroup C1      NOp   1
                         Standard orientation:                         
 ---------------------------------------------------------------------
 Center     Atomic      Atomic             Coordinates (Angstroms)
 Number     Number       Type             X           Y           Z
 ---------------------------------------------------------------------
      1         15           0        2.413258   -0.159704   -0.181655
      2          7           0       -0.031510    1.494727   -0.211437
      3          6           0        2.188607    1.326531   -1.261298
      4          1           0        3.116932    1.903417   -1.367204
      5          1           0        1.934158    0.900120   -2.246715
      6          8           0       -0.111950   -0.897292   -2.061393
      7         15           0       -2.428815   -0.101579    0.065305
      8          6           0        1.074202    2.174810   -0.724359
      9          6           0        1.171614    3.550191   -0.679431
     10          1           0        2.066554    4.018144   -1.097082
     11          6           0        0.149849    4.337396   -0.092291
     12          1           0        0.217778    5.424948   -0.048751
     13          6           0       -0.961122    3.638028    0.446589
     14          1           0       -1.792914    4.179774    0.904163
     15          6           0       -1.031763    2.262210    0.385604
     16          6           0       -2.225791    1.517159    0.925570
     17          1           0       -3.137436    2.127995    0.868780
     18          1           0       -2.076221    1.255108    1.987789
     19         44           0       -0.023073   -0.703266    0.016178
     20          1           0        0.630236   -1.451008   -2.324650
     21          6           0       -3.257744    0.284930   -1.606914
     22          6           0       -3.597775   -1.118342    1.178716
     23          6           0        3.558331   -1.327367   -1.169527
     24          6           0        3.281181    0.424975    1.411417
     25          6           0        2.478267    1.603554    1.998427
     26          1           0        2.570431    2.501380    1.375762
     27          1           0        1.411320    1.393738    2.126856
     28          1           0        2.896007    1.835489    2.991335
     29          6           0        3.330334   -0.731935    2.430199
     30          1           0        3.483329   -0.313005    3.437768
     31          1           0        2.408485   -1.326125    2.454059
     32          1           0        4.162047   -1.416311    2.229192
     33          6           0        4.706350    0.936225    1.150284
     34          1           0        5.094830    1.369419    2.087063
     35          1           0        5.392791    0.133983    0.852232
     36          1           0        4.727081    1.726618    0.385493
     37          6           0        4.675628   -0.540139   -1.874911
     38          1           0        5.313694    0.020558   -1.183577
     39          1           0        5.316208   -1.259806   -2.411674
     40          1           0        4.270206    0.157814   -2.621274
     41          6           0        4.152172   -2.397071   -0.242354
     42          1           0        4.650942   -3.158896   -0.863291
     43          1           0        4.904920   -1.987399    0.441964
     44          1           0        3.373958   -2.903422    0.348600
     45          6           0        2.743159   -2.046852   -2.253217
     46          1           0        1.948990   -2.671244   -1.820475
     47          1           0        2.318198   -1.343798   -2.983564
     48          1           0        3.421301   -2.715106   -2.807822
     49          6           0       -3.241773   -0.965565   -2.503211
     50          1           0       -3.576571   -0.674648   -3.513185
     51          1           0       -2.227057   -1.376005   -2.578799
     52          1           0       -3.921823   -1.746857   -2.144970
     53          6           0       -4.699553    0.785136   -1.435766
     54          1           0       -5.065730    1.115046   -2.422445
     55          1           0       -5.378558   -0.001009   -1.081719
     56          1           0       -4.765972    1.646387   -0.754360
     57          6           0       -2.449637    1.401852   -2.293502
     58          1           0       -2.504869    2.348767   -1.739302
     59          1           0       -1.396213    1.131893   -2.417954
     60          1           0       -2.888239    1.571814   -3.290517
     61          6           0       -2.799887   -1.665139    2.370641
     62          1           0       -1.984655   -2.329261    2.054611
     63          1           0       -2.387458   -0.861953    2.994046
     64          1           0       -3.487317   -2.251882    3.001448
     65          6           0       -4.738530   -0.252656    1.740821
     66          1           0       -5.377968    0.178869    0.963688
     67          1           0       -5.373157   -0.891322    2.377801
     68          1           0       -4.356732    0.562404    2.372267
     69          6           0       -4.162717   -2.311806    0.395475
     70          1           0       -4.684982   -2.977862    1.101453
     71          1           0       -4.889449   -2.005555   -0.367538
     72          1           0       -3.365252   -2.895462   -0.089059
     73          8           0       -0.174356   -2.690181   -0.022946
     74          6           0        0.036306   -0.620092    1.852575
     75          1           0       -0.235128   -2.833340   -0.984263
     76          8           0        0.090582   -0.576122    3.011850
 ---------------------------------------------------------------------
 Rotational constants (GHZ):           0.1977407           0.1041051           0.0963761
 Standard basis: def2SVP (5D, 7F)
 There are   719 symmetry adapted cartesian basis functions of A   symmetry.
 There are   684 symmetry adapted basis functions of A   symmetry.
   684 basis functions,  1154 primitive gaussians,   719 cartesian basis functions
   134 alpha electrons      132 beta electrons
       nuclear repulsion energy      4523.0685834660 Hartrees.
 NAtoms=   76 NActive=   76 NUniq=   76 SFac= 1.00D+00 NAtFMM=   60 NAOKFM=T Big=T
 Integral buffers will be    131072 words long.
 Regular integral format.
 Two-electron integral symmetry is turned on.
 Nuclear repulsion after empirical dispersion term =     4522.8473331423 Hartrees.
 ------------------------------------------------------------------------------
 Polarizable Continuum Model (PCM)
 =================================
 Model                : PCM.
 Atomic radii         : SMD-Coulomb.
 Polarization charges : Total charges.
 Charge compensation  : None.
 Solution method      : On-the-fly selection.
 Cavity type          : VdW (van der Waals Surface) (Alpha=1.000).
 Cavity algorithm     : GePol (No added spheres)
                        Default sphere list used, NSphG=   76.
                        Lebedev-Laikov grids with approx.  5.0 points / Ang**2.
                        Smoothing algorithm: York/Karplus (Gamma=1.0000).
                        Polarization charges: spherical gaussians, with
                                              point-specific exponents (IZeta= 3).
                        Self-potential: point-specific (ISelfS= 7).
                        Self-field    : sphere-specific E.n sum rule (ISelfD= 2).
 1st derivatives      : Analytical E(r).r(x)/FMM algorithm (CHGder, D1EAlg=3).
                        Cavity 1st derivative terms included.
 Solvent              : Water, Eps=  78.355300 Eps(inf)=   1.777849
 ------------------------------------------------------------------------------
 ------------------------------------------------------------------------------
 Atomic radii for non-electrostatic terms: SMD-CDS.
 ------------------------------------------------------------------------------
 Nuclear repulsion after PCM non-electrostatic terms =     4522.8659799026 Hartrees.
 One-electron integrals computed using PRISM.
   1 Symmetry operations used in ECPInt.
 ECPInt:  NShTT=   54615 NPrTT=  190596 LenC2=   48087 LenP2D=  113822.
 LDataN:  DoStor=T MaxTD1= 7 Len=  274
 NBasis=   684 RedAO= T EigKep=  4.87D-04  NBF=   684
 NBsUse=   684 1.00D-06 EigRej= -1.00D+00 NBFU=   684
 Defaulting to unpruned grid for atomic number  44.
 Initial guess from the checkpoint file:  "A_Ru_Crossing_Region_TDDFT_B3LYP_def2SVP_smd_water_Interpol_Geom_1_1_T_T_10.chk"
 B after Tr=    -0.000000   -0.000000    0.000000
         Rot=    1.000000   -0.000000   -0.000000   -0.000000 Ang=   0.00 deg.
 Initial guess <Sx>= 0.0000 <Sy>= 0.0000 <Sz>= 1.0000 <S**2>= 2.0219 S= 1.0073
 Requested convergence on RMS density matrix=1.00D-08 within  32 cycles.
 Requested convergence on MAX density matrix=1.00D-06.
 Requested convergence on             energy=1.00D-06.
 No special actions if energy rises.
 Defaulting to unpruned grid for atomic number  44.
 Defaulting to unpruned grid for atomic number  44.
 Defaulting to unpruned grid for atomic number  44.
 Defaulting to unpruned grid for atomic number  44.
 Defaulting to unpruned grid for atomic number  44.
 Defaulting to unpruned grid for atomic number  44.
 Defaulting to unpruned grid for atomic number  44.
 Defaulting to unpruned grid for atomic number  44.
 Defaulting to unpruned grid for atomic number  44.
 Defaulting to unpruned grid for atomic number  44.
 Defaulting to unpruned grid for atomic number  44.
 Defaulting to unpruned grid for atomic number  44.
 Defaulting to unpruned grid for atomic number  44.
 Defaulting to unpruned grid for atomic number  44.
 Defaulting to unpruned grid for atomic number  44.
 Defaulting to unpruned grid for atomic number  44.
 Defaulting to unpruned grid for atomic number  44.
 Defaulting to unpruned grid for atomic number  44.
 Defaulting to unpruned grid for atomic number  44.
 Defaulting to unpruned grid for atomic number  44.
 Defaulting to unpruned grid for atomic number  44.
 Defaulting to unpruned grid for atomic number  44.
 Defaulting to unpruned grid for atomic number  44.
 Defaulting to unpruned grid for atomic number  44.
 Inv3:  Mode=1 IEnd=    64449675.
 Iteration    1 A*A^-1 deviation from unit magnitude is 3.33D-15 for   2679.
 Iteration    1 A*A^-1 deviation from orthogonality  is 3.50D-15 for   1814    915.
 Iteration    1 A^-1*A deviation from unit magnitude is 3.22D-15 for   2863.
 Iteration    1 A^-1*A deviation from orthogonality  is 1.23D-14 for   4194   4144.
 Error on total polarization charges =  0.07767
 SCF Done:  E(UB3LYP) =  -1998.92321893     A.U. after    1 cycles
            NFock=  1  Conv=0.41D-09     -V/T= 2.0404
 <Sx>= 0.0000 <Sy>= 0.0000 <Sz>= 1.0000 <S**2>= 2.0219 S= 1.0073
 <L.S>=  0.00000000000    
 SMD-CDS (non-electrostatic) energy       (kcal/mol) =      11.70
 (included in total energy above)
 Annihilation of the first spin contaminant:
 S**2 before annihilation     2.0219,   after     2.0003
 QCSCF skips out because SCF is already converged.
 DoSCS=F DFT=T ScalE2(SS,OS)=  1.000000  1.000000
 ExpMin= 3.92D-02 ExpMax= 8.00D+03 ExpMxC= 1.20D+03 IAcc=3 IRadAn=         5 AccDes= 0.00D+00
 HarFok:  IExCor=  205 AccDes= 0.00D+00 IRadAn=         5 IDoV=-2 UseB2=F ITyADJ=14
 ICtDFT= 12500011 ScaDFX=  1.000000  1.000000  1.000000  1.000000
 Defaulting to unpruned grid for atomic number  44.
 GSVD:  LWork=       -2100 too small for GESVD, short by        9450 words or        9450 for optimal perf.
 Range of M.O.s used for correlation:    43   684
 NBasis=   684 NAE=   134 NBE=   132 NFC=    42 NFV=     0
 NROrb=    642 NOA=    92 NOB=    90 NVA=   550 NVB=   552

 **** Warning!!: The smallest alpha delta epsilon is  0.46180230D-01

 Ignoring spin specification with unrestricted ground state.
 NEqPCM:  Using equilibrium solvation (IEInf=0, Eps=  78.3553, EpsInf=   1.7778)
 Orbital symmetries:
 Alpha Orbitals:
       Occupied  (A) (A) (A) (A) (A) (A) (A) (A) (A) (A) (A) (A)
                 (A) (A) (A) (A) (A) (A) (A) (A) (A) (A) (A) (A)
                 (A) (A) (A) (A) (A) (A) (A) (A) (A) (A) (A) (A)
                 (A) (A) (A) (A) (A) (A) (A) (A) (A) (A) (A) (A)
                 (A) (A) (A) (A) (A) (A) (A) (A) (A) (A) (A) (A)
                 (A) (A) (A) (A) (A) (A) (A) (A) (A) (A) (A) (A)
                 (A) (A) (A) (A) (A) (A) (A) (A) (A) (A) (A) (A)
                 (A) (A) (A) (A) (A) (A) (A) (A) (A) (A) (A) (A)
                 (A) (A) (A) (A) (A) (A) (A) (A) (A) (A) (A) (A)
                 (A) (A) (A) (A) (A) (A) (A) (A) (A) (A) (A) (A)
                 (A) (A) (A) (A) (A) (A) (A) (A) (A) (A) (A) (A)
                 (A) (A)
       Virtual   (A) (A) (A) (A) (A) (A) (A) (A) (A) (A) (A) (A)
                 (A) (A) (A) (A) (A) (A) (A) (A) (A) (A) (A) (A)
                 (A) (A) (A) (A) (A) (A) (A) (A) (A) (A) (A) (A)
                 (A) (A) (A) (A) (A) (A) (A) (A) (A) (A) (A) (A)
                 (A) (A) (A) (A) (A) (A) (A) (A) (A) (A) (A) (A)
                 (A) (A) (A) (A) (A) (A) (A) (A) (A) (A) (A) (A)
                 (A) (A) (A) (A) (A) (A) (A) (A) (A) (A) (A) (A)
                 (A) (A) (A) (A) (A) (A) (A) (A) (A) (A) (A) (A)
                 (A) (A) (A) (A) (A) (A) (A) (A) (A) (A) (A) (A)
                 (A) (A) (A) (A) (A) (A) (A) (A) (A) (A) (A) (A)
                 (A) (A) (A) (A) (A) (A) (A) (A) (A) (A) (A) (A)
                 (A) (A) (A) (A) (A) (A) (A) (A) (A) (A) (A) (A)
                 (A) (A) (A) (A) (A) (A) (A) (A) (A) (A) (A) (A)
                 (A) (A) (A) (A) (A) (A) (A) (A) (A) (A) (A) (A)
                 (A) (A) (A) (A) (A) (A) (A) (A) (A) (A) (A) (A)
                 (A) (A) (A) (A) (A) (A) (A) (A) (A) (A) (A) (A)
                 (A) (A) (A) (A) (A) (A) (A) (A) (A) (A) (A) (A)
                 (A) (A) (A) (A) (A) (A) (A) (A) (A) (A) (A) (A)
                 (A) (A) (A) (A) (A) (A) (A) (A) (A) (A) (A) (A)
                 (A) (A) (A) (A) (A) (A) (A) (A) (A) (A) (A) (A)
                 (A) (A) (A) (A) (A) (A) (A) (A) (A) (A) (A) (A)
                 (A) (A) (A) (A) (A) (A) (A) (A) (A) (A) (A) (A)
                 (A) (A) (A) (A) (A) (A) (A) (A) (A) (A) (A) (A)
                 (A) (A) (A) (A) (A) (A) (A) (A) (A) (A) (A) (A)
                 (A) (A) (A) (A) (A) (A) (A) (A) (A) (A) (A) (A)
                 (A) (A) (A) (A) (A) (A) (A) (A) (A) (A) (A) (A)
                 (A) (A) (A) (A) (A) (A) (A) (A) (A) (A) (A) (A)
                 (A) (A) (A) (A) (A) (A) (A) (A) (A) (A) (A) (A)
                 (A) (A) (A) (A) (A) (A) (A) (A) (A) (A) (A) (A)
                 (A) (A) (A) (A) (A) (A) (A) (A) (A) (A) (A) (A)
                 (A) (A) (A) (A) (A) (A) (A) (A) (A) (A) (A) (A)
                 (A) (A) (A) (A) (A) (A) (A) (A) (A) (A) (A) (A)
                 (A) (A) (A) (A) (A) (A) (A) (A) (A) (A) (A) (A)
                 (A) (A) (A) (A) (A) (A) (A) (A) (A) (A) (A) (A)
                 (A) (A) (A) (A) (A) (A) (A) (A) (A) (A) (A) (A)
                 (A) (A) (A) (A) (A) (A) (A) (A) (A) (A) (A) (A)
                 (A) (A) (A) (A) (A) (A) (A) (A) (A) (A) (A) (A)
                 (A) (A) (A) (A) (A) (A) (A) (A) (A) (A) (A) (A)
                 (A) (A) (A) (A) (A) (A) (A) (A) (A) (A) (A) (A)
                 (A) (A) (A) (A) (A) (A) (A) (A) (A) (A) (A) (A)
                 (A) (A) (A) (A) (A) (A) (A) (A) (A) (A) (A) (A)
                 (A) (A) (A) (A) (A) (A) (A) (A) (A) (A) (A) (A)
                 (A) (A) (A) (A) (A) (A) (A) (A) (A) (A) (A) (A)
                 (A) (A) (A) (A) (A) (A) (A) (A) (A) (A) (A) (A)
                 (A) (A) (A) (A) (A) (A) (A) (A) (A) (A) (A) (A)
                 (A) (A) (A) (A) (A) (A) (A) (A) (A) (A)
 Beta  Orbitals:
       Occupied  (A) (A) (A) (A) (A) (A) (A) (A) (A) (A) (A) (A)
                 (A) (A) (A) (A) (A) (A) (A) (A) (A) (A) (A) (A)
                 (A) (A) (A) (A) (A) (A) (A) (A) (A) (A) (A) (A)
                 (A) (A) (A) (A) (A) (A) (A) (A) (A) (A) (A) (A)
                 (A) (A) (A) (A) (A) (A) (A) (A) (A) (A) (A) (A)
                 (A) (A) (A) (A) (A) (A) (A) (A) (A) (A) (A) (A)
                 (A) (A) (A) (A) (A) (A) (A) (A) (A) (A) (A) (A)
                 (A) (A) (A) (A) (A) (A) (A) (A) (A) (A) (A) (A)
                 (A) (A) (A) (A) (A) (A) (A) (A) (A) (A) (A) (A)
                 (A) (A) (A) (A) (A) (A) (A) (A) (A) (A) (A) (A)
                 (A) (A) (A) (A) (A) (A) (A) (A) (A) (A) (A) (A)
       Virtual   (A) (A) (A) (A) (A) (A) (A) (A) (A) (A) (A) (A)
                 (A) (A) (A) (A) (A) (A) (A) (A) (A) (A) (A) (A)
                 (A) (A) (A) (A) (A) (A) (A) (A) (A) (A) (A) (A)
                 (A) (A) (A) (A) (A) (A) (A) (A) (A) (A) (A) (A)
                 (A) (A) (A) (A) (A) (A) (A) (A) (A) (A) (A) (A)
                 (A) (A) (A) (A) (A) (A) (A) (A) (A) (A) (A) (A)
                 (A) (A) (A) (A) (A) (A) (A) (A) (A) (A) (A) (A)
                 (A) (A) (A) (A) (A) (A) (A) (A) (A) (A) (A) (A)
                 (A) (A) (A) (A) (A) (A) (A) (A) (A) (A) (A) (A)
                 (A) (A) (A) (A) (A) (A) (A) (A) (A) (A) (A) (A)
                 (A) (A) (A) (A) (A) (A) (A) (A) (A) (A) (A) (A)
                 (A) (A) (A) (A) (A) (A) (A) (A) (A) (A) (A) (A)
                 (A) (A) (A) (A) (A) (A) (A) (A) (A) (A) (A) (A)
                 (A) (A) (A) (A) (A) (A) (A) (A) (A) (A) (A) (A)
                 (A) (A) (A) (A) (A) (A) (A) (A) (A) (A) (A) (A)
                 (A) (A) (A) (A) (A) (A) (A) (A) (A) (A) (A) (A)
                 (A) (A) (A) (A) (A) (A) (A) (A) (A) (A) (A) (A)
                 (A) (A) (A) (A) (A) (A) (A) (A) (A) (A) (A) (A)
                 (A) (A) (A) (A) (A) (A) (A) (A) (A) (A) (A) (A)
                 (A) (A) (A) (A) (A) (A) (A) (A) (A) (A) (A) (A)
                 (A) (A) (A) (A) (A) (A) (A) (A) (A) (A) (A) (A)
                 (A) (A) (A) (A) (A) (A) (A) (A) (A) (A) (A) (A)
                 (A) (A) (A) (A) (A) (A) (A) (A) (A) (A) (A) (A)
                 (A) (A) (A) (A) (A) (A) (A) (A) (A) (A) (A) (A)
                 (A) (A) (A) (A) (A) (A) (A) (A) (A) (A) (A) (A)
                 (A) (A) (A) (A) (A) (A) (A) (A) (A) (A) (A) (A)
                 (A) (A) (A) (A) (A) (A) (A) (A) (A) (A) (A) (A)
                 (A) (A) (A) (A) (A) (A) (A) (A) (A) (A) (A) (A)
                 (A) (A) (A) (A) (A) (A) (A) (A) (A) (A) (A) (A)
                 (A) (A) (A) (A) (A) (A) (A) (A) (A) (A) (A) (A)
                 (A) (A) (A) (A) (A) (A) (A) (A) (A) (A) (A) (A)
                 (A) (A) (A) (A) (A) (A) (A) (A) (A) (A) (A) (A)
                 (A) (A) (A) (A) (A) (A) (A) (A) (A) (A) (A) (A)
                 (A) (A) (A) (A) (A) (A) (A) (A) (A) (A) (A) (A)
                 (A) (A) (A) (A) (A) (A) (A) (A) (A) (A) (A) (A)
                 (A) (A) (A) (A) (A) (A) (A) (A) (A) (A) (A) (A)
                 (A) (A) (A) (A) (A) (A) (A) (A) (A) (A) (A) (A)
                 (A) (A) (A) (A) (A) (A) (A) (A) (A) (A) (A) (A)
                 (A) (A) (A) (A) (A) (A) (A) (A) (A) (A) (A) (A)
                 (A) (A) (A) (A) (A) (A) (A) (A) (A) (A) (A) (A)
                 (A) (A) (A) (A) (A) (A) (A) (A) (A) (A) (A) (A)
                 (A) (A) (A) (A) (A) (A) (A) (A) (A) (A) (A) (A)
                 (A) (A) (A) (A) (A) (A) (A) (A) (A) (A) (A) (A)
                 (A) (A) (A) (A) (A) (A) (A) (A) (A) (A) (A) (A)
                 (A) (A) (A) (A) (A) (A) (A) (A) (A) (A) (A) (A)
                 (A) (A) (A) (A) (A) (A) (A) (A) (A) (A) (A) (A)
    20 initial guesses have been made.
 Convergence on wavefunction:    0.001000000000000
 Iteration     1 Dimension    20 NMult     0 NNew     20
 CISAX will form    20 AO SS matrices at one time.
 Defaulting to unpruned grid for atomic number  44.
 Defaulting to unpruned grid for atomic number  44.
 Defaulting to unpruned grid for atomic number  44.
 Defaulting to unpruned grid for atomic number  44.
 Defaulting to unpruned grid for atomic number  44.
 Defaulting to unpruned grid for atomic number  44.
 Defaulting to unpruned grid for atomic number  44.
 Defaulting to unpruned grid for atomic number  44.
 Defaulting to unpruned grid for atomic number  44.
 Defaulting to unpruned grid for atomic number  44.
 Defaulting to unpruned grid for atomic number  44.
 Defaulting to unpruned grid for atomic number  44.
 Defaulting to unpruned grid for atomic number  44.
 Defaulting to unpruned grid for atomic number  44.
 Defaulting to unpruned grid for atomic number  44.
 Defaulting to unpruned grid for atomic number  44.
 Defaulting to unpruned grid for atomic number  44.
 Defaulting to unpruned grid for atomic number  44.
 Defaulting to unpruned grid for atomic number  44.
 Defaulting to unpruned grid for atomic number  44.
 Defaulting to unpruned grid for atomic number  44.
 Defaulting to unpruned grid for atomic number  44.
 Defaulting to unpruned grid for atomic number  44.
 Defaulting to unpruned grid for atomic number  44.
 New state      2 was old state      6
 New state      3 was old state      2
 New state      4 was old state      7
 New state      5 was old state      4
 Iteration     2 Dimension    30 NMult    20 NNew     10
 Iteration     3 Dimension    40 NMult    30 NNew     10
 New state      2 was old state      3
 New state      3 was old state      2
 Iteration     4 Dimension    50 NMult    40 NNew     10
 Iteration     5 Dimension    60 NMult    50 NNew     10
 Iteration     6 Dimension    70 NMult    60 NNew     10
 Iteration     7 Dimension    78 NMult    70 NNew      8
 ***********************************************************************
 Excited states from <AA,BB:AA,BB> singles matrix:
 ***********************************************************************
 
 ExtSpn:  IState=     1 X2= 1.015 Y2= 0.015 X2-Y2-1= 6.66D-16
          S2Grnd=  2.022 Ra=  0.002 Rb=  0.001 T= -0.003 S2Ext= -0.000 S2=  2.022
 ExtSpn:  IState=     2 X2= 1.008 Y2= 0.008 X2-Y2-1=-1.11D-16
          S2Grnd=  2.022 Ra=  0.001 Rb=  0.002 T=  0.002 S2Ext=  0.004 S2=  2.026
 ExtSpn:  IState=     3 X2= 1.004 Y2= 0.004 X2-Y2-1= 2.22D-16
          S2Grnd=  2.022 Ra=  0.001 Rb= -0.000 T= -0.003 S2Ext= -0.003 S2=  2.019
 ExtSpn:  IState=     4 X2= 1.003 Y2= 0.003 X2-Y2-1= 6.66D-16
          S2Grnd=  2.022 Ra=  0.002 Rb=  0.003 T= -0.003 S2Ext=  0.002 S2=  2.024
 ExtSpn:  IState=     5 X2= 1.003 Y2= 0.003 X2-Y2-1= 8.88D-16
          S2Grnd=  2.022 Ra=  0.006 Rb=  0.002 T= -0.001 S2Ext=  0.007 S2=  2.029
 Ground to excited state transition densities written to RWF  633
 Ground to excited state transition electric dipole moments (Au):
       state          X           Y           Z        Dip. S.      Osc.
         1        -0.2138     -1.7020      0.1420      2.9625      0.0236
         2        -0.2892      0.1481      0.1614      0.1316      0.0035
         3         0.0291     -0.1924     -0.0053      0.0379      0.0010
         4         0.0488      0.2747      0.2066      0.1205      0.0044
         5         0.0153     -0.7556      0.1611      0.5970      0.0228
 Ground to excited state transition velocity dipole moments (Au):
       state          X           Y           Z        Dip. S.      Osc.
         1         0.0005      0.0194     -0.0031      0.0004      0.0215
         2         0.0135     -0.0040     -0.0080      0.0003      0.0044
         3        -0.0058      0.0052      0.0023      0.0001      0.0011
         4         0.0006     -0.0172     -0.0053      0.0003      0.0039
         5        -0.0013      0.0398     -0.0125      0.0017      0.0203
 Ground to excited state transition magnetic dipole moments (Au):
       state          X           Y           Z
         1        -0.0016      0.0301     -0.0101
         2        -0.5749      0.2817     -0.9835
         3         0.1620      0.5591      0.3930
         4        -0.4398     -0.1449      0.0686
         5        -0.3306     -0.1055     -0.1450
 Ground to excited state transition velocity quadrupole moments (Au):
       state          XX          YY          ZZ          XY          XZ          YZ
         1        -0.0479      0.0912     -0.0136      0.0015     -0.0054     -0.0149
         2         0.0013     -0.0219      0.0137      0.0003     -0.0027     -0.0101
         3        -0.0039      0.0133      0.0055     -0.0112      0.0069      0.0083
         4         0.0926     -0.1217      0.0261     -0.0174      0.0023      0.0207
         5         0.0804      0.1400     -0.0053     -0.0168     -0.0062     -0.0135
 <0|del|b> * <b|rxdel|0> + <0|del|b> * <b|delr+rdel|0>
 Rotatory Strengths (R) in cgs (10**-40 erg-esu-cm/Gauss)
       state          XX          YY          ZZ    R(velocity)    E-M Angle
         1        21.1734      0.8460     14.4123     12.1439       10.36
         2        58.8706     -0.7625    -77.2677     -6.3865       93.28
         3        32.2751     -0.6950     17.5531     16.3777       60.30
         4        14.4964     -4.6657     13.8136      7.8814       77.37
         5       -11.8815     12.7067    -24.8294     -8.0014       97.12
 1/2[<0|r|b>*<b|rxdel|0> + (<0|rxdel|b>*<b|r|0>)*]
 Rotatory Strengths (R) in cgs (10**-40 erg-esu-cm/Gauss)
       state          XX          YY          ZZ     R(length)
         1        -0.2370     36.2729      1.0186     12.3515
         2      -117.5656    -29.5122    112.2574    -11.6068
         3        -3.3329     76.0728      1.4626     24.7342
         4        15.1688     28.1383    -10.0197     11.0958
         5         3.5837    -56.3871     16.5146    -12.0963
  1/2[<0|del|b>*<b|r|0> + (<0|r|b>*<b|del|0>)*] (Au)
       state          X           Y           Z        Dip. S.   Osc.(frdel)
         1        -0.0001     -0.0330     -0.0004      0.0335      0.0223
         2        -0.0039     -0.0006     -0.0013      0.0058      0.0039
         3        -0.0002     -0.0010     -0.0000      0.0012      0.0008
         4         0.0000     -0.0047     -0.0011      0.0058      0.0039
         5        -0.0000     -0.0301     -0.0020      0.0321      0.0214

 Excitation energies and oscillator strengths:
 
 Excited State   1:  3.014-A      0.3245 eV 3820.46 nm  f=0.0236  <S**2>=2.022
    134A ->135A        0.99683
 This state for optimization and/or second-order correction.
 Total Energy, E(TD-HF/TD-DFT) =  -1998.91129278    
 Copying the excited state density for this state as the 1-particle RhoCI density.
 
 Excited State   2:  3.018-A      1.0925 eV 1134.82 nm  f=0.0035  <S**2>=2.026
    134A ->136A        0.84581
    134A ->137A       -0.14755
    134A ->138A        0.32775
    134A ->139A       -0.11910
    132B ->133B        0.35200
 
 Excited State   3:  3.013-A      1.1060 eV 1121.04 nm  f=0.0010  <S**2>=2.019
    134A ->136A       -0.33584
    134A ->138A       -0.14994
    127B ->133B        0.18513
    131B ->133B       -0.13996
    132B ->133B        0.88376
 
 Excited State   4:  3.016-A      1.4981 eV  827.61 nm  f=0.0044  <S**2>=2.024
    134A ->137A       -0.27324
    134A ->138A       -0.21713
    134A ->139A        0.18081
    126B ->133B       -0.12388
    129B ->133B        0.34944
    130B ->133B       -0.21960
    131B ->133B        0.78104
    132B ->133B        0.13976
 
 Excited State   5:  3.019-A      1.5608 eV  794.38 nm  f=0.0228  <S**2>=2.029
    134A ->137A        0.71997
    134A ->138A        0.37438
    134A ->139A       -0.40194
    129B ->133B        0.18411
    131B ->133B        0.31904
 SavETr:  write IOETrn=   770 NScale= 10 NData=  16 NLR=1 NState=    5 LETran=     100.
 NEqPCM:  Using equilibrium solvation (IEInf=0, Eps=  78.3553, EpsInf=   1.7778)
          Differentiating once with respect to electric field.
                with respect to dipole field.
          Electric field/nuclear overlap derivatives assumed to be zero.
          There are     1 degrees of freedom in the 1st order CPHF.  IDoFFX=0 NUNeed=     1.
 Defaulting to unpruned grid for atomic number  44.
 Defaulting to unpruned grid for atomic number  44.
 Defaulting to unpruned grid for atomic number  44.
 Defaulting to unpruned grid for atomic number  44.
 Defaulting to unpruned grid for atomic number  44.
 Defaulting to unpruned grid for atomic number  44.
 Defaulting to unpruned grid for atomic number  44.
 Defaulting to unpruned grid for atomic number  44.
 Defaulting to unpruned grid for atomic number  44.
 Defaulting to unpruned grid for atomic number  44.
 Defaulting to unpruned grid for atomic number  44.
 Defaulting to unpruned grid for atomic number  44.
 Defaulting to unpruned grid for atomic number  44.
 Defaulting to unpruned grid for atomic number  44.
 Defaulting to unpruned grid for atomic number  44.
 Defaulting to unpruned grid for atomic number  44.
 Defaulting to unpruned grid for atomic number  44.
 Defaulting to unpruned grid for atomic number  44.
 Defaulting to unpruned grid for atomic number  44.
 Defaulting to unpruned grid for atomic number  44.
 Defaulting to unpruned grid for atomic number  44.
 Defaulting to unpruned grid for atomic number  44.
 Defaulting to unpruned grid for atomic number  44.
 Defaulting to unpruned grid for atomic number  44.
 LinEq1:  Iter=  0 NonCon=     1 RMS=3.85D-03 Max=9.80D-01 NDo=     1
 AX will form     1 AO Fock derivatives at one time.
 LinEq1:  Iter=  1 NonCon=     1 RMS=3.67D-03 Max=2.26D-01 NDo=     1
 LinEq1:  Iter=  2 NonCon=     1 RMS=6.14D-03 Max=1.40D+00 NDo=     1
 LinEq1:  Iter=  3 NonCon=     1 RMS=4.17D-03 Max=4.84D-01 NDo=     1
 LinEq1:  Iter=  4 NonCon=     1 RMS=3.80D-03 Max=3.80D-01 NDo=     1
 LinEq1:  Iter=  5 NonCon=     1 RMS=1.75D-03 Max=1.30D-01 NDo=     1
 LinEq1:  Iter=  6 NonCon=     1 RMS=1.26D-03 Max=1.15D-01 NDo=     1
 LinEq1:  Iter=  7 NonCon=     1 RMS=7.29D-04 Max=7.22D-02 NDo=     1
 LinEq1:  Iter=  8 NonCon=     1 RMS=5.44D-04 Max=3.50D-02 NDo=     1
 LinEq1:  Iter=  9 NonCon=     1 RMS=3.94D-04 Max=5.43D-02 NDo=     1
 LinEq1:  Iter= 10 NonCon=     1 RMS=2.92D-04 Max=4.16D-02 NDo=     1
 LinEq1:  Iter= 11 NonCon=     1 RMS=2.06D-04 Max=3.05D-02 NDo=     1
 LinEq1:  Iter= 12 NonCon=     1 RMS=1.37D-04 Max=1.57D-02 NDo=     1
 LinEq1:  Iter= 13 NonCon=     1 RMS=1.17D-04 Max=1.24D-02 NDo=     1
 LinEq1:  Iter= 14 NonCon=     1 RMS=7.44D-05 Max=4.35D-03 NDo=     1
 LinEq1:  Iter= 15 NonCon=     1 RMS=4.45D-05 Max=4.22D-03 NDo=     1
 LinEq1:  Iter= 16 NonCon=     1 RMS=2.70D-05 Max=1.68D-03 NDo=     1
 LinEq1:  Iter= 17 NonCon=     1 RMS=1.82D-05 Max=1.62D-03 NDo=     1
 LinEq1:  Iter= 18 NonCon=     1 RMS=1.46D-05 Max=9.17D-04 NDo=     1
 LinEq1:  Iter= 19 NonCon=     1 RMS=9.18D-06 Max=7.14D-04 NDo=     1
 LinEq1:  Iter= 20 NonCon=     1 RMS=4.83D-06 Max=2.75D-04 NDo=     1
 LinEq1:  Iter= 21 NonCon=     1 RMS=2.93D-06 Max=1.82D-04 NDo=     1
 LinEq1:  Iter= 22 NonCon=     1 RMS=1.84D-06 Max=1.31D-04 NDo=     1
 LinEq1:  Iter= 23 NonCon=     1 RMS=1.09D-06 Max=5.77D-05 NDo=     1
 LinEq1:  Iter= 24 NonCon=     1 RMS=7.45D-07 Max=6.05D-05 NDo=     1
 LinEq1:  Iter= 25 NonCon=     1 RMS=4.70D-07 Max=4.16D-05 NDo=     1
 LinEq1:  Iter= 26 NonCon=     1 RMS=2.64D-07 Max=3.40D-05 NDo=     1
 LinEq1:  Iter= 27 NonCon=     1 RMS=1.62D-07 Max=2.17D-05 NDo=     1
 LinEq1:  Iter= 28 NonCon=     1 RMS=8.11D-08 Max=1.08D-05 NDo=     1
 LinEq1:  Iter= 29 NonCon=     1 RMS=3.94D-08 Max=3.95D-06 NDo=     1
 LinEq1:  Iter= 30 NonCon=     1 RMS=2.52D-08 Max=2.30D-06 NDo=     1
 LinEq1:  Iter= 31 NonCon=     1 RMS=1.26D-08 Max=1.28D-06 NDo=     1
 LinEq1:  Iter= 32 NonCon=     1 RMS=7.56D-09 Max=6.12D-07 NDo=     1
 LinEq1:  Iter= 33 NonCon=     1 RMS=4.73D-09 Max=3.63D-07 NDo=     1
 LinEq1:  Iter= 34 NonCon=     1 RMS=2.29D-09 Max=1.63D-07 NDo=     1
 LinEq1:  Iter= 35 NonCon=     1 RMS=1.19D-09 Max=8.14D-08 NDo=     1
 LinEq1:  Iter= 36 NonCon=     1 RMS=6.38D-10 Max=4.21D-08 NDo=     1
 LinEq1:  Iter= 37 NonCon=     1 RMS=2.40D-10 Max=1.81D-08 NDo=     1
 LinEq1:  Iter= 38 NonCon=     1 RMS=1.26D-10 Max=1.28D-08 NDo=     1
 LinEq1:  Iter= 39 NonCon=     1 RMS=7.74D-11 Max=7.53D-09 NDo=     1
 LinEq1:  Iter= 40 NonCon=     1 RMS=3.72D-11 Max=3.29D-09 NDo=     1
 LinEq1:  Iter= 41 NonCon=     1 RMS=1.88D-11 Max=1.08D-09 NDo=     1
 LinEq1:  Iter= 42 NonCon=     0 RMS=1.07D-11 Max=6.55D-10 NDo=     1
 Linear equations converged to 1.000D-10 1.000D-09 after    42 iterations.
 End of Minotr F.D. properties file   721 does not exist.
 End of Minotr F.D. properties file   722 does not exist.
 End of Minotr F.D. properties file   788 does not exist.

 **********************************************************************

            Population analysis using the CI Density.

 **********************************************************************

 Orbital symmetries:
 Alpha Orbitals:
       Occupied  (A) (A) (A) (A) (A) (A) (A) (A) (A) (A) (A) (A)
                 (A) (A) (A) (A) (A) (A) (A) (A) (A) (A) (A) (A)
                 (A) (A) (A) (A) (A) (A) (A) (A) (A) (A) (A) (A)
                 (A) (A) (A) (A) (A) (A) (A) (A) (A) (A) (A) (A)
                 (A) (A) (A) (A) (A) (A) (A) (A) (A) (A) (A) (A)
                 (A) (A) (A) (A) (A) (A) (A) (A) (A) (A) (A) (A)
                 (A) (A) (A) (A) (A) (A) (A) (A) (A) (A) (A) (A)
                 (A) (A) (A) (A) (A) (A) (A) (A) (A) (A) (A) (A)
                 (A) (A) (A) (A) (A) (A) (A) (A) (A) (A) (A) (A)
                 (A) (A) (A) (A) (A) (A) (A) (A) (A) (A) (A) (A)
                 (A) (A) (A) (A) (A) (A) (A) (A) (A) (A) (A) (A)
                 (A) (A)
       Virtual   (A) (A) (A) (A) (A) (A) (A) (A) (A) (A) (A) (A)
                 (A) (A) (A) (A) (A) (A) (A) (A) (A) (A) (A) (A)
                 (A) (A) (A) (A) (A) (A) (A) (A) (A) (A) (A) (A)
                 (A) (A) (A) (A) (A) (A) (A) (A) (A) (A) (A) (A)
                 (A) (A) (A) (A) (A) (A) (A) (A) (A) (A) (A) (A)
                 (A) (A) (A) (A) (A) (A) (A) (A) (A) (A) (A) (A)
                 (A) (A) (A) (A) (A) (A) (A) (A) (A) (A) (A) (A)
                 (A) (A) (A) (A) (A) (A) (A) (A) (A) (A) (A) (A)
                 (A) (A) (A) (A) (A) (A) (A) (A) (A) (A) (A) (A)
                 (A) (A) (A) (A) (A) (A) (A) (A) (A) (A) (A) (A)
                 (A) (A) (A) (A) (A) (A) (A) (A) (A) (A) (A) (A)
                 (A) (A) (A) (A) (A) (A) (A) (A) (A) (A) (A) (A)
                 (A) (A) (A) (A) (A) (A) (A) (A) (A) (A) (A) (A)
                 (A) (A) (A) (A) (A) (A) (A) (A) (A) (A) (A) (A)
                 (A) (A) (A) (A) (A) (A) (A) (A) (A) (A) (A) (A)
                 (A) (A) (A) (A) (A) (A) (A) (A) (A) (A) (A) (A)
                 (A) (A) (A) (A) (A) (A) (A) (A) (A) (A) (A) (A)
                 (A) (A) (A) (A) (A) (A) (A) (A) (A) (A) (A) (A)
                 (A) (A) (A) (A) (A) (A) (A) (A) (A) (A) (A) (A)
                 (A) (A) (A) (A) (A) (A) (A) (A) (A) (A) (A) (A)
                 (A) (A) (A) (A) (A) (A) (A) (A) (A) (A) (A) (A)
                 (A) (A) (A) (A) (A) (A) (A) (A) (A) (A) (A) (A)
                 (A) (A) (A) (A) (A) (A) (A) (A) (A) (A) (A) (A)
                 (A) (A) (A) (A) (A) (A) (A) (A) (A) (A) (A) (A)
                 (A) (A) (A) (A) (A) (A) (A) (A) (A) (A) (A) (A)
                 (A) (A) (A) (A) (A) (A) (A) (A) (A) (A) (A) (A)
                 (A) (A) (A) (A) (A) (A) (A) (A) (A) (A) (A) (A)
                 (A) (A) (A) (A) (A) (A) (A) (A) (A) (A) (A) (A)
                 (A) (A) (A) (A) (A) (A) (A) (A) (A) (A) (A) (A)
                 (A) (A) (A) (A) (A) (A) (A) (A) (A) (A) (A) (A)
                 (A) (A) (A) (A) (A) (A) (A) (A) (A) (A) (A) (A)
                 (A) (A) (A) (A) (A) (A) (A) (A) (A) (A) (A) (A)
                 (A) (A) (A) (A) (A) (A) (A) (A) (A) (A) (A) (A)
                 (A) (A) (A) (A) (A) (A) (A) (A) (A) (A) (A) (A)
                 (A) (A) (A) (A) (A) (A) (A) (A) (A) (A) (A) (A)
                 (A) (A) (A) (A) (A) (A) (A) (A) (A) (A) (A) (A)
                 (A) (A) (A) (A) (A) (A) (A) (A) (A) (A) (A) (A)
                 (A) (A) (A) (A) (A) (A) (A) (A) (A) (A) (A) (A)
                 (A) (A) (A) (A) (A) (A) (A) (A) (A) (A) (A) (A)
                 (A) (A) (A) (A) (A) (A) (A) (A) (A) (A) (A) (A)
                 (A) (A) (A) (A) (A) (A) (A) (A) (A) (A) (A) (A)
                 (A) (A) (A) (A) (A) (A) (A) (A) (A) (A) (A) (A)
                 (A) (A) (A) (A) (A) (A) (A) (A) (A) (A) (A) (A)
                 (A) (A) (A) (A) (A) (A) (A) (A) (A) (A) (A) (A)
                 (A) (A) (A) (A) (A) (A) (A) (A) (A) (A) (A) (A)
                 (A) (A) (A) (A) (A) (A) (A) (A) (A) (A)
 Beta  Orbitals:
       Occupied  (A) (A) (A) (A) (A) (A) (A) (A) (A) (A) (A) (A)
                 (A) (A) (A) (A) (A) (A) (A) (A) (A) (A) (A) (A)
                 (A) (A) (A) (A) (A) (A) (A) (A) (A) (A) (A) (A)
                 (A) (A) (A) (A) (A) (A) (A) (A) (A) (A) (A) (A)
                 (A) (A) (A) (A) (A) (A) (A) (A) (A) (A) (A) (A)
                 (A) (A) (A) (A) (A) (A) (A) (A) (A) (A) (A) (A)
                 (A) (A) (A) (A) (A) (A) (A) (A) (A) (A) (A) (A)
                 (A) (A) (A) (A) (A) (A) (A) (A) (A) (A) (A) (A)
                 (A) (A) (A) (A) (A) (A) (A) (A) (A) (A) (A) (A)
                 (A) (A) (A) (A) (A) (A) (A) (A) (A) (A) (A) (A)
                 (A) (A) (A) (A) (A) (A) (A) (A) (A) (A) (A) (A)
       Virtual   (A) (A) (A) (A) (A) (A) (A) (A) (A) (A) (A) (A)
                 (A) (A) (A) (A) (A) (A) (A) (A) (A) (A) (A) (A)
                 (A) (A) (A) (A) (A) (A) (A) (A) (A) (A) (A) (A)
                 (A) (A) (A) (A) (A) (A) (A) (A) (A) (A) (A) (A)
                 (A) (A) (A) (A) (A) (A) (A) (A) (A) (A) (A) (A)
                 (A) (A) (A) (A) (A) (A) (A) (A) (A) (A) (A) (A)
                 (A) (A) (A) (A) (A) (A) (A) (A) (A) (A) (A) (A)
                 (A) (A) (A) (A) (A) (A) (A) (A) (A) (A) (A) (A)
                 (A) (A) (A) (A) (A) (A) (A) (A) (A) (A) (A) (A)
                 (A) (A) (A) (A) (A) (A) (A) (A) (A) (A) (A) (A)
                 (A) (A) (A) (A) (A) (A) (A) (A) (A) (A) (A) (A)
                 (A) (A) (A) (A) (A) (A) (A) (A) (A) (A) (A) (A)
                 (A) (A) (A) (A) (A) (A) (A) (A) (A) (A) (A) (A)
                 (A) (A) (A) (A) (A) (A) (A) (A) (A) (A) (A) (A)
                 (A) (A) (A) (A) (A) (A) (A) (A) (A) (A) (A) (A)
                 (A) (A) (A) (A) (A) (A) (A) (A) (A) (A) (A) (A)
                 (A) (A) (A) (A) (A) (A) (A) (A) (A) (A) (A) (A)
                 (A) (A) (A) (A) (A) (A) (A) (A) (A) (A) (A) (A)
                 (A) (A) (A) (A) (A) (A) (A) (A) (A) (A) (A) (A)
                 (A) (A) (A) (A) (A) (A) (A) (A) (A) (A) (A) (A)
                 (A) (A) (A) (A) (A) (A) (A) (A) (A) (A) (A) (A)
                 (A) (A) (A) (A) (A) (A) (A) (A) (A) (A) (A) (A)
                 (A) (A) (A) (A) (A) (A) (A) (A) (A) (A) (A) (A)
                 (A) (A) (A) (A) (A) (A) (A) (A) (A) (A) (A) (A)
                 (A) (A) (A) (A) (A) (A) (A) (A) (A) (A) (A) (A)
                 (A) (A) (A) (A) (A) (A) (A) (A) (A) (A) (A) (A)
                 (A) (A) (A) (A) (A) (A) (A) (A) (A) (A) (A) (A)
                 (A) (A) (A) (A) (A) (A) (A) (A) (A) (A) (A) (A)
                 (A) (A) (A) (A) (A) (A) (A) (A) (A) (A) (A) (A)
                 (A) (A) (A) (A) (A) (A) (A) (A) (A) (A) (A) (A)
                 (A) (A) (A) (A) (A) (A) (A) (A) (A) (A) (A) (A)
                 (A) (A) (A) (A) (A) (A) (A) (A) (A) (A) (A) (A)
                 (A) (A) (A) (A) (A) (A) (A) (A) (A) (A) (A) (A)
                 (A) (A) (A) (A) (A) (A) (A) (A) (A) (A) (A) (A)
                 (A) (A) (A) (A) (A) (A) (A) (A) (A) (A) (A) (A)
                 (A) (A) (A) (A) (A) (A) (A) (A) (A) (A) (A) (A)
                 (A) (A) (A) (A) (A) (A) (A) (A) (A) (A) (A) (A)
                 (A) (A) (A) (A) (A) (A) (A) (A) (A) (A) (A) (A)
                 (A) (A) (A) (A) (A) (A) (A) (A) (A) (A) (A) (A)
                 (A) (A) (A) (A) (A) (A) (A) (A) (A) (A) (A) (A)
                 (A) (A) (A) (A) (A) (A) (A) (A) (A) (A) (A) (A)
                 (A) (A) (A) (A) (A) (A) (A) (A) (A) (A) (A) (A)
                 (A) (A) (A) (A) (A) (A) (A) (A) (A) (A) (A) (A)
                 (A) (A) (A) (A) (A) (A) (A) (A) (A) (A) (A) (A)
                 (A) (A) (A) (A) (A) (A) (A) (A) (A) (A) (A) (A)
                 (A) (A) (A) (A) (A) (A) (A) (A) (A) (A) (A) (A)
 The electronic state is 3-A.
 Alpha  occ. eigenvalues --  -77.08723 -77.08505 -19.19280 -19.11868 -19.06803
 Alpha  occ. eigenvalues --  -14.32383 -10.28174 -10.21231 -10.21001 -10.20920
 Alpha  occ. eigenvalues --  -10.20845 -10.20784 -10.20624 -10.19016 -10.18965
 Alpha  occ. eigenvalues --  -10.17777 -10.17603 -10.17537 -10.17528 -10.17472
 Alpha  occ. eigenvalues --  -10.17387 -10.17352 -10.17296 -10.17226 -10.17103
 Alpha  occ. eigenvalues --  -10.17023 -10.16960 -10.16653 -10.16470 -10.16167
 Alpha  occ. eigenvalues --   -6.57929  -6.57691  -4.74503  -4.74465  -4.74305
 Alpha  occ. eigenvalues --   -4.74271  -4.74228  -4.74086  -3.06346  -1.90814
 Alpha  occ. eigenvalues --   -1.90649  -1.88993  -1.09893  -0.93249  -0.91331
 Alpha  occ. eigenvalues --   -0.88739  -0.82291  -0.81887  -0.79864  -0.79547
 Alpha  occ. eigenvalues --   -0.78297  -0.76647  -0.72952  -0.68835  -0.68114
 Alpha  occ. eigenvalues --   -0.67985  -0.67843  -0.67564  -0.67132  -0.67033
 Alpha  occ. eigenvalues --   -0.66787  -0.66606  -0.63370  -0.61464  -0.58406
 Alpha  occ. eigenvalues --   -0.57688  -0.55327  -0.54559  -0.54179  -0.51329
 Alpha  occ. eigenvalues --   -0.50793  -0.49038  -0.47912  -0.47207  -0.47038
 Alpha  occ. eigenvalues --   -0.46006  -0.45819  -0.45341  -0.45012  -0.44585
 Alpha  occ. eigenvalues --   -0.44524  -0.44168  -0.43930  -0.43703  -0.43431
 Alpha  occ. eigenvalues --   -0.42769  -0.42619  -0.42411  -0.42126  -0.42086
 Alpha  occ. eigenvalues --   -0.41502  -0.40959  -0.40447  -0.39821  -0.39520
 Alpha  occ. eigenvalues --   -0.39153  -0.38735  -0.38205  -0.37827  -0.37495
 Alpha  occ. eigenvalues --   -0.37321  -0.37170  -0.37049  -0.36704  -0.36220
 Alpha  occ. eigenvalues --   -0.35965  -0.35629  -0.35581  -0.35489  -0.34986
 Alpha  occ. eigenvalues --   -0.34677  -0.34640  -0.34359  -0.33836  -0.33520
 Alpha  occ. eigenvalues --   -0.33166  -0.32743  -0.32734  -0.32345  -0.32213
 Alpha  occ. eigenvalues --   -0.31511  -0.31337  -0.30582  -0.29854  -0.29332
 Alpha  occ. eigenvalues --   -0.28731  -0.28347  -0.27345  -0.26714  -0.24494
 Alpha  occ. eigenvalues --   -0.23955  -0.22702  -0.21285  -0.09008
 Alpha virt. eigenvalues --   -0.04390  -0.00403   0.00252   0.00360   0.00557
 Alpha virt. eigenvalues --    0.04245   0.05061   0.05783   0.06309   0.06785
 Alpha virt. eigenvalues --    0.07292   0.07714   0.07966   0.08451   0.08734
 Alpha virt. eigenvalues --    0.09047   0.09366   0.09915   0.10129   0.10500
 Alpha virt. eigenvalues --    0.10721   0.10956   0.11239   0.11895   0.12080
 Alpha virt. eigenvalues --    0.12361   0.13085   0.13288   0.13547   0.13833
 Alpha virt. eigenvalues --    0.13949   0.14195   0.14260   0.14781   0.15072
 Alpha virt. eigenvalues --    0.15324   0.15622   0.16180   0.16468   0.16704
 Alpha virt. eigenvalues --    0.17080   0.17421   0.17564   0.17745   0.17978
 Alpha virt. eigenvalues --    0.18091   0.18467   0.18954   0.19348   0.20054
 Alpha virt. eigenvalues --    0.20296   0.20466   0.20723   0.20855   0.21263
 Alpha virt. eigenvalues --    0.21389   0.21643   0.21698   0.22115   0.22529
 Alpha virt. eigenvalues --    0.23097   0.23633   0.24192   0.24501   0.24797
 Alpha virt. eigenvalues --    0.24996   0.25524   0.26083   0.26344   0.27005
 Alpha virt. eigenvalues --    0.27216   0.27685   0.28794   0.29238   0.30560
 Alpha virt. eigenvalues --    0.30788   0.31608   0.32295   0.33869   0.34659
 Alpha virt. eigenvalues --    0.35260   0.36575   0.37429   0.38525   0.39749
 Alpha virt. eigenvalues --    0.40011   0.40652   0.40793   0.41082   0.41646
 Alpha virt. eigenvalues --    0.42114   0.42354   0.43131   0.43406   0.43702
 Alpha virt. eigenvalues --    0.43978   0.44363   0.45342   0.45697   0.46430
 Alpha virt. eigenvalues --    0.46761   0.48049   0.48281   0.49325   0.49807
 Alpha virt. eigenvalues --    0.50186   0.51300   0.52262   0.52680   0.53356
 Alpha virt. eigenvalues --    0.53523   0.54194   0.54467   0.54548   0.54766
 Alpha virt. eigenvalues --    0.55251   0.56329   0.56354   0.56969   0.57712
 Alpha virt. eigenvalues --    0.58229   0.58499   0.58909   0.59170   0.59751
 Alpha virt. eigenvalues --    0.59954   0.60845   0.60868   0.61163   0.61727
 Alpha virt. eigenvalues --    0.61950   0.62372   0.63220   0.63341   0.63418
 Alpha virt. eigenvalues --    0.63943   0.64416   0.64600   0.65047   0.65169
 Alpha virt. eigenvalues --    0.65467   0.65522   0.65851   0.66151   0.66289
 Alpha virt. eigenvalues --    0.66548   0.66658   0.66808   0.67151   0.67554
 Alpha virt. eigenvalues --    0.67819   0.67994   0.68357   0.68636   0.68779
 Alpha virt. eigenvalues --    0.68978   0.69156   0.69478   0.69632   0.70007
 Alpha virt. eigenvalues --    0.70344   0.70646   0.70899   0.71348   0.71611
 Alpha virt. eigenvalues --    0.71741   0.71914   0.72224   0.72647   0.72844
 Alpha virt. eigenvalues --    0.72860   0.73066   0.73400   0.73747   0.73866
 Alpha virt. eigenvalues --    0.74200   0.74463   0.74971   0.75238   0.75454
 Alpha virt. eigenvalues --    0.75832   0.76125   0.76378   0.76603   0.76891
 Alpha virt. eigenvalues --    0.77383   0.77961   0.78330   0.78842   0.79118
 Alpha virt. eigenvalues --    0.79403   0.79755   0.80447   0.80624   0.80801
 Alpha virt. eigenvalues --    0.81408   0.81838   0.82068   0.82319   0.82966
 Alpha virt. eigenvalues --    0.83400   0.84033   0.84377   0.84666   0.85318
 Alpha virt. eigenvalues --    0.86333   0.87294   0.87489   0.87783   0.89039
 Alpha virt. eigenvalues --    0.89496   0.89864   0.90566   0.91944   0.92270
 Alpha virt. eigenvalues --    0.92513   0.94102   0.94802   0.95850   0.96473
 Alpha virt. eigenvalues --    0.96520   0.98677   0.99123   1.00724   1.01034
 Alpha virt. eigenvalues --    1.02232   1.02858   1.03698   1.04459   1.04558
 Alpha virt. eigenvalues --    1.05245   1.06026   1.06353   1.06779   1.07900
 Alpha virt. eigenvalues --    1.08584   1.09239   1.09650   1.11039   1.12193
 Alpha virt. eigenvalues --    1.12521   1.13285   1.15106   1.15989   1.16311
 Alpha virt. eigenvalues --    1.16987   1.17733   1.18891   1.19514   1.20147
 Alpha virt. eigenvalues --    1.21046   1.21300   1.21474   1.22120   1.23021
 Alpha virt. eigenvalues --    1.23390   1.24522   1.24724   1.25386   1.26266
 Alpha virt. eigenvalues --    1.27053   1.27596   1.28526   1.29076   1.29542
 Alpha virt. eigenvalues --    1.30055   1.30304   1.31292   1.32274   1.33041
 Alpha virt. eigenvalues --    1.34037   1.34196   1.35004   1.38038   1.38944
 Alpha virt. eigenvalues --    1.41226   1.42289   1.43878   1.45093   1.46896
 Alpha virt. eigenvalues --    1.48311   1.49179   1.50231   1.51160   1.51616
 Alpha virt. eigenvalues --    1.51851   1.52899   1.53142   1.53660   1.54031
 Alpha virt. eigenvalues --    1.54469   1.54610   1.55417   1.55991   1.56236
 Alpha virt. eigenvalues --    1.56685   1.56978   1.57129   1.57849   1.58282
 Alpha virt. eigenvalues --    1.58667   1.58737   1.58839   1.59454   1.59619
 Alpha virt. eigenvalues --    1.60103   1.60940   1.61234   1.61656   1.62165
 Alpha virt. eigenvalues --    1.62871   1.64095   1.64777   1.65058   1.65206
 Alpha virt. eigenvalues --    1.66264   1.67006   1.67773   1.67970   1.68265
 Alpha virt. eigenvalues --    1.69064   1.70098   1.70757   1.71346   1.71951
 Alpha virt. eigenvalues --    1.74091   1.74561   1.75618   1.76038   1.76867
 Alpha virt. eigenvalues --    1.77236   1.77310   1.77693   1.77890   1.78063
 Alpha virt. eigenvalues --    1.78508   1.79180   1.79573   1.79868   1.80027
 Alpha virt. eigenvalues --    1.80649   1.80855   1.81117   1.81410   1.81830
 Alpha virt. eigenvalues --    1.82625   1.82831   1.83553   1.83777   1.84261
 Alpha virt. eigenvalues --    1.84416   1.84763   1.85047   1.85153   1.85562
 Alpha virt. eigenvalues --    1.85925   1.86384   1.86627   1.87020   1.87351
 Alpha virt. eigenvalues --    1.87855   1.88805   1.89411   1.89703   1.89785
 Alpha virt. eigenvalues --    1.90729   1.90937   1.91381   1.92108   1.92614
 Alpha virt. eigenvalues --    1.92925   1.93347   1.93509   1.93606   1.94056
 Alpha virt. eigenvalues --    1.94438   1.94793   1.95413   1.95602   1.95983
 Alpha virt. eigenvalues --    1.96142   1.96405   1.97160   1.97374   1.97736
 Alpha virt. eigenvalues --    1.98685   1.99040   1.99456   2.00469   2.00680
 Alpha virt. eigenvalues --    2.00854   2.01165   2.01408   2.02243   2.02366
 Alpha virt. eigenvalues --    2.02749   2.03300   2.03758   2.04098   2.04606
 Alpha virt. eigenvalues --    2.04883   2.06281   2.08065   2.09398   2.10376
 Alpha virt. eigenvalues --    2.12484   2.14454   2.15826   2.16133   2.16700
 Alpha virt. eigenvalues --    2.17199   2.17226   2.18110   2.18190   2.18502
 Alpha virt. eigenvalues --    2.18850   2.19172   2.19832   2.20075   2.20483
 Alpha virt. eigenvalues --    2.21079   2.21353   2.22079   2.22935   2.23227
 Alpha virt. eigenvalues --    2.23718   2.23979   2.24332   2.24951   2.25826
 Alpha virt. eigenvalues --    2.26725   2.27984   2.28990   2.29916   2.30963
 Alpha virt. eigenvalues --    2.35455   2.37320   2.38054   2.38901   2.39223
 Alpha virt. eigenvalues --    2.40244   2.40557   2.40876   2.41047   2.41530
 Alpha virt. eigenvalues --    2.42157   2.43014   2.43135   2.43277   2.43572
 Alpha virt. eigenvalues --    2.44844   2.45617   2.46552   2.46864   2.47623
 Alpha virt. eigenvalues --    2.48898   2.49542   2.51146   2.52238   2.53584
 Alpha virt. eigenvalues --    2.55091   2.55497   2.55965   2.56307   2.56404
 Alpha virt. eigenvalues --    2.57075   2.57529   2.58044   2.58601   2.61150
 Alpha virt. eigenvalues --    2.61814   2.62258   2.62436   2.62892   2.63340
 Alpha virt. eigenvalues --    2.63597   2.63737   2.64101   2.64332   2.64462
 Alpha virt. eigenvalues --    2.64944   2.64993   2.66170   2.66913   2.67944
 Alpha virt. eigenvalues --    2.70291   2.72285   2.72496   2.73039   2.73347
 Alpha virt. eigenvalues --    2.74067   2.74395   2.75430   2.77106   2.79584
 Alpha virt. eigenvalues --    2.82893   2.84157   2.86457   2.87260   2.87835
 Alpha virt. eigenvalues --    2.87842   2.88591   2.89109   2.89416   2.89594
 Alpha virt. eigenvalues --    2.90009   2.90794   2.91304   2.92766   2.93194
 Alpha virt. eigenvalues --    2.93510   2.94175   2.94391   2.94881   2.95361
 Alpha virt. eigenvalues --    2.95761   2.96655   2.96797   2.97026   2.97143
 Alpha virt. eigenvalues --    2.98471   2.98872   2.99040   2.99477   3.00642
 Alpha virt. eigenvalues --    3.02178   3.02804   3.03565   3.04449   3.05591
 Alpha virt. eigenvalues --    3.06121   3.07133   3.07613   3.07709   3.08646
 Alpha virt. eigenvalues --    3.09241   3.09868   3.10166   3.11402   3.11847
 Alpha virt. eigenvalues --    3.12170   3.13594   3.19777   3.20569   3.35715
 Alpha virt. eigenvalues --    3.57740   3.73672   3.78238   3.88147  45.27123
  Beta  occ. eigenvalues --  -77.08698 -77.08467 -19.19338 -19.11198 -19.06794
  Beta  occ. eigenvalues --  -14.31819 -10.28248 -10.21195 -10.20993 -10.20893
  Beta  occ. eigenvalues --  -10.20623 -10.20583 -10.20518 -10.19046 -10.18993
  Beta  occ. eigenvalues --  -10.17778 -10.17604 -10.17530 -10.17527 -10.17472
  Beta  occ. eigenvalues --  -10.17378 -10.17345 -10.17294 -10.17226 -10.17120
  Beta  occ. eigenvalues --  -10.17100 -10.17054 -10.16648 -10.16466 -10.15575
  Beta  occ. eigenvalues --   -6.57898  -6.57648  -4.74473  -4.74448  -4.74254
  Beta  occ. eigenvalues --   -4.74236  -4.74203  -4.73983  -3.03288  -1.87790
  Beta  occ. eigenvalues --   -1.86382  -1.86166  -1.09998  -0.91811  -0.90488
  Beta  occ. eigenvalues --   -0.88631  -0.82215  -0.81817  -0.79834  -0.79517
  Beta  occ. eigenvalues --   -0.77955  -0.75933  -0.72772  -0.68717  -0.68087
  Beta  occ. eigenvalues --   -0.67975  -0.67809  -0.67553  -0.67122  -0.67024
  Beta  occ. eigenvalues --   -0.66772  -0.66596  -0.62912  -0.61346  -0.57667
  Beta  occ. eigenvalues --   -0.57473  -0.55432  -0.54512  -0.54141  -0.51235
  Beta  occ. eigenvalues --   -0.50686  -0.48879  -0.47687  -0.47074  -0.46950
  Beta  occ. eigenvalues --   -0.45865  -0.45669  -0.45188  -0.44998  -0.44475
  Beta  occ. eigenvalues --   -0.44401  -0.44035  -0.43856  -0.43531  -0.43271
  Beta  occ. eigenvalues --   -0.42676  -0.42531  -0.42228  -0.42071  -0.41921
  Beta  occ. eigenvalues --   -0.41246  -0.40834  -0.40364  -0.39751  -0.39175
  Beta  occ. eigenvalues --   -0.39006  -0.38674  -0.38045  -0.37776  -0.37475
  Beta  occ. eigenvalues --   -0.37241  -0.37140  -0.37014  -0.36536  -0.36135
  Beta  occ. eigenvalues --   -0.35558  -0.35518  -0.35327  -0.35088  -0.34774
  Beta  occ. eigenvalues --   -0.34436  -0.34271  -0.33794  -0.33642  -0.33168
  Beta  occ. eigenvalues --   -0.32797  -0.32433  -0.32305  -0.32139  -0.31151
  Beta  occ. eigenvalues --   -0.31004  -0.30166  -0.29532  -0.29350  -0.28748
  Beta  occ. eigenvalues --   -0.28126  -0.26785  -0.26142  -0.25508  -0.23150
  Beta  occ. eigenvalues --   -0.22497  -0.21611
  Beta virt. eigenvalues --   -0.11139  -0.02890  -0.01260  -0.00052   0.00583
  Beta virt. eigenvalues --    0.00747   0.01752   0.04320   0.05251   0.06121
  Beta virt. eigenvalues --    0.06363   0.07077   0.07443   0.07845   0.08129
  Beta virt. eigenvalues --    0.08588   0.08921   0.09100   0.09501   0.10126
  Beta virt. eigenvalues --    0.10217   0.10569   0.10823   0.11040   0.11310
  Beta virt. eigenvalues --    0.11951   0.12362   0.12492   0.13221   0.13449
  Beta virt. eigenvalues --    0.13599   0.13949   0.14051   0.14243   0.14360
  Beta virt. eigenvalues --    0.15001   0.15223   0.15686   0.15948   0.16272
  Beta virt. eigenvalues --    0.16539   0.16750   0.17220   0.17484   0.17642
  Beta virt. eigenvalues --    0.17893   0.18100   0.18262   0.18536   0.19016
  Beta virt. eigenvalues --    0.19433   0.20113   0.20428   0.20542   0.20823
  Beta virt. eigenvalues --    0.20956   0.21330   0.21442   0.21688   0.21733
  Beta virt. eigenvalues --    0.22199   0.22579   0.23196   0.23798   0.24417
  Beta virt. eigenvalues --    0.24563   0.24861   0.25057   0.25576   0.26135
  Beta virt. eigenvalues --    0.26484   0.27155   0.27407   0.27797   0.28874
  Beta virt. eigenvalues --    0.29521   0.30913   0.31203   0.32005   0.32560
  Beta virt. eigenvalues --    0.34036   0.34857   0.35521   0.36716   0.37579
  Beta virt. eigenvalues --    0.38756   0.39809   0.40147   0.40817   0.40881
  Beta virt. eigenvalues --    0.41158   0.41793   0.42245   0.42543   0.43300
  Beta virt. eigenvalues --    0.43626   0.43879   0.44249   0.44577   0.45566
  Beta virt. eigenvalues --    0.45882   0.46801   0.46906   0.48244   0.48464
  Beta virt. eigenvalues --    0.49539   0.50212   0.50323   0.51584   0.52435
  Beta virt. eigenvalues --    0.52808   0.53575   0.53812   0.54326   0.54726
  Beta virt. eigenvalues --    0.54887   0.54982   0.55583   0.56447   0.56872
  Beta virt. eigenvalues --    0.57128   0.57949   0.58367   0.58738   0.59009
  Beta virt. eigenvalues --    0.59231   0.59810   0.60046   0.60946   0.61046
  Beta virt. eigenvalues --    0.61365   0.61801   0.62078   0.62565   0.63356
  Beta virt. eigenvalues --    0.63466   0.63588   0.64252   0.64501   0.64731
  Beta virt. eigenvalues --    0.65105   0.65251   0.65559   0.65561   0.65936
  Beta virt. eigenvalues --    0.66201   0.66342   0.66693   0.66788   0.66920
  Beta virt. eigenvalues --    0.67234   0.67648   0.67922   0.68035   0.68435
  Beta virt. eigenvalues --    0.68667   0.68817   0.69039   0.69241   0.69522
  Beta virt. eigenvalues --    0.69679   0.70119   0.70409   0.70704   0.71052
  Beta virt. eigenvalues --    0.71475   0.71744   0.71862   0.72036   0.72304
  Beta virt. eigenvalues --    0.72738   0.72900   0.72960   0.73148   0.73497
  Beta virt. eigenvalues --    0.73824   0.73970   0.74271   0.74600   0.75063
  Beta virt. eigenvalues --    0.75339   0.75509   0.75941   0.76198   0.76487
  Beta virt. eigenvalues --    0.76721   0.77019   0.77524   0.78068   0.78401
  Beta virt. eigenvalues --    0.78952   0.79227   0.79501   0.79843   0.80546
  Beta virt. eigenvalues --    0.80722   0.80899   0.81503   0.81937   0.82172
  Beta virt. eigenvalues --    0.82410   0.83058   0.83481   0.84127   0.84507
  Beta virt. eigenvalues --    0.84849   0.85348   0.86424   0.87371   0.87656
  Beta virt. eigenvalues --    0.87952   0.89285   0.89599   0.89988   0.90709
  Beta virt. eigenvalues --    0.92179   0.92448   0.92660   0.94282   0.94953
  Beta virt. eigenvalues --    0.95935   0.96649   0.96725   0.98877   0.99392
  Beta virt. eigenvalues --    1.00871   1.01318   1.02404   1.03076   1.03880
  Beta virt. eigenvalues --    1.04623   1.04723   1.05480   1.06192   1.06503
  Beta virt. eigenvalues --    1.06960   1.07996   1.08739   1.09439   1.09815
  Beta virt. eigenvalues --    1.11315   1.12360   1.12787   1.13426   1.15285
  Beta virt. eigenvalues --    1.16170   1.16408   1.17067   1.17786   1.18982
  Beta virt. eigenvalues --    1.19711   1.20254   1.21213   1.21377   1.21686
  Beta virt. eigenvalues --    1.22319   1.23319   1.23582   1.24733   1.24910
  Beta virt. eigenvalues --    1.25685   1.26716   1.27304   1.27805   1.28738
  Beta virt. eigenvalues --    1.29189   1.29967   1.30314   1.30410   1.31407
  Beta virt. eigenvalues --    1.32522   1.33275   1.34302   1.34492   1.35139
  Beta virt. eigenvalues --    1.38314   1.39638   1.41582   1.42518   1.44052
  Beta virt. eigenvalues --    1.45387   1.47256   1.48411   1.49302   1.50336
  Beta virt. eigenvalues --    1.51277   1.51829   1.51971   1.53013   1.53250
  Beta virt. eigenvalues --    1.53702   1.54142   1.54606   1.54645   1.55464
  Beta virt. eigenvalues --    1.56068   1.56364   1.56724   1.57145   1.57208
  Beta virt. eigenvalues --    1.57937   1.58334   1.58721   1.58806   1.58890
  Beta virt. eigenvalues --    1.59555   1.59719   1.60209   1.61058   1.61357
  Beta virt. eigenvalues --    1.61854   1.62275   1.62959   1.64189   1.64887
  Beta virt. eigenvalues --    1.65177   1.65339   1.66395   1.67216   1.67907
  Beta virt. eigenvalues --    1.68161   1.68552   1.69195   1.70218   1.71192
  Beta virt. eigenvalues --    1.71614   1.72360   1.74355   1.74771   1.75888
  Beta virt. eigenvalues --    1.76354   1.77016   1.77445   1.77608   1.77765
  Beta virt. eigenvalues --    1.77992   1.78217   1.78597   1.79386   1.79699
  Beta virt. eigenvalues --    1.80104   1.80203   1.80834   1.81019   1.81445
  Beta virt. eigenvalues --    1.81580   1.82132   1.82875   1.83004   1.83665
  Beta virt. eigenvalues --    1.83897   1.84348   1.84509   1.84915   1.85254
  Beta virt. eigenvalues --    1.85358   1.85733   1.86042   1.86568   1.86985
  Beta virt. eigenvalues --    1.87156   1.87918   1.89042   1.89225   1.89778
  Beta virt. eigenvalues --    1.90093   1.90419   1.90996   1.91021   1.91864
  Beta virt. eigenvalues --    1.92309   1.92734   1.92992   1.93440   1.93573
  Beta virt. eigenvalues --    1.93787   1.94120   1.94478   1.94945   1.95522
  Beta virt. eigenvalues --    1.95789   1.96268   1.96367   1.96920   1.97444
  Beta virt. eigenvalues --    1.97706   1.98124   1.99267   1.99427   1.99643
  Beta virt. eigenvalues --    2.00689   2.00744   2.00976   2.01477   2.01595
  Beta virt. eigenvalues --    2.02374   2.02548   2.02854   2.03710   2.04010
  Beta virt. eigenvalues --    2.04449   2.04938   2.05263   2.07306   2.09054
  Beta virt. eigenvalues --    2.09546   2.10508   2.13257   2.15077   2.16015
  Beta virt. eigenvalues --    2.16226   2.16840   2.17298   2.17370   2.18198
  Beta virt. eigenvalues --    2.18244   2.18547   2.19055   2.19241   2.19903
  Beta virt. eigenvalues --    2.20246   2.20594   2.21141   2.21407   2.22169
  Beta virt. eigenvalues --    2.23006   2.23317   2.23853   2.24156   2.24448
  Beta virt. eigenvalues --    2.25212   2.25966   2.27116   2.28405   2.29382
  Beta virt. eigenvalues --    2.30449   2.31232   2.35604   2.37762   2.38414
  Beta virt. eigenvalues --    2.38956   2.39303   2.40474   2.40824   2.41212
  Beta virt. eigenvalues --    2.41456   2.41615   2.42324   2.43064   2.43384
  Beta virt. eigenvalues --    2.43401   2.43714   2.45220   2.45695   2.46699
  Beta virt. eigenvalues --    2.46996   2.47692   2.49216   2.49821   2.51344
  Beta virt. eigenvalues --    2.52406   2.53839   2.55123   2.55522   2.56016
  Beta virt. eigenvalues --    2.56344   2.56434   2.57162   2.57556   2.58236
  Beta virt. eigenvalues --    2.58655   2.61189   2.61775   2.62279   2.62452
  Beta virt. eigenvalues --    2.62920   2.63570   2.63652   2.63764   2.64124
  Beta virt. eigenvalues --    2.64299   2.64582   2.64954   2.65208   2.66460
  Beta virt. eigenvalues --    2.66974   2.68232   2.70728   2.72389   2.72860
  Beta virt. eigenvalues --    2.73198   2.73480   2.74147   2.74682   2.76676
  Beta virt. eigenvalues --    2.77867   2.80155   2.83590   2.84247   2.86604
  Beta virt. eigenvalues --    2.87292   2.87860   2.87899   2.88669   2.89178
  Beta virt. eigenvalues --    2.89442   2.89623   2.90059   2.90813   2.91355
  Beta virt. eigenvalues --    2.92844   2.93216   2.93790   2.94219   2.94515
  Beta virt. eigenvalues --    2.95038   2.95422   2.95802   2.96705   2.96829
  Beta virt. eigenvalues --    2.97052   2.97291   2.98539   2.99026   2.99324
  Beta virt. eigenvalues --    3.00495   3.00908   3.02257   3.02876   3.04035
  Beta virt. eigenvalues --    3.04948   3.05648   3.06238   3.07191   3.07766
  Beta virt. eigenvalues --    3.07919   3.08745   3.09324   3.09925   3.10225
  Beta virt. eigenvalues --    3.11484   3.12149   3.12311   3.13645   3.19695
  Beta virt. eigenvalues --    3.20488   3.36036   3.57975   3.73650   3.78911
  Beta virt. eigenvalues --    3.88179  45.20665
          Condensed to atoms (all electrons):
          Atomic-Atomic Spin Densities.
 Mulliken charges and spin densities:
               1          2
     1  P    0.227914   0.208239
     2  N   -0.223756  -0.049152
     3  C    0.037565  -0.002611
     4  H    0.053840   0.002526
     5  H    0.089459  -0.001689
     6  O   -0.521389  -0.007936
     7  P    0.230165   0.237651
     8  C    0.016108  -0.013320
     9  C    0.009950  -0.009708
    10  H    0.022828   0.004203
    11  C    0.097643  -0.078159
    12  H    0.049313   0.004691
    13  C   -0.004391   0.000681
    14  H    0.021108   0.003595
    15  C    0.044804  -0.019061
    16  C    0.012999  -0.003037
    17  H    0.061901  -0.000586
    18  H    0.093704  -0.001876
    19  Ru  -0.127919   1.578268
    20  H    0.162207   0.001387
    21  C   -0.356729   0.008631
    22  C   -0.375272   0.008496
    23  C   -0.374693   0.012441
    24  C   -0.380895   0.004550
    25  C    0.076427  -0.001241
    26  H    0.015303   0.000004
    27  H    0.046173   0.002096
    28  H    0.014744  -0.000231
    29  C    0.082011   0.000508
    30  H    0.009202  -0.000164
    31  H    0.033050   0.003213
    32  H    0.007194   0.000007
    33  C    0.081729   0.001551
    34  H    0.000029   0.005402
    35  H    0.031490  -0.000087
    36  H    0.021676   0.000080
    37  C    0.080200   0.002654
    38  H    0.008038  -0.000116
    39  H    0.004607   0.006478
    40  H    0.021322  -0.000151
    41  C    0.073318  -0.000406
    42  H    0.011758  -0.000023
    43  H    0.032474   0.000030
    44  H    0.030954   0.001657
    45  C    0.061814   0.000390
    46  H    0.025566  -0.000884
    47  H    0.033597   0.000168
    48  H    0.013637  -0.000384
    49  C    0.077538   0.000760
    50  H   -0.001144  -0.000222
    51  H    0.005352   0.001204
    52  H   -0.001124   0.000045
    53  C    0.082741   0.002115
    54  H   -0.005841   0.007066
    55  H    0.027908  -0.000126
    56  H    0.018497   0.000118
    57  C    0.062465  -0.002028
    58  H    0.018293  -0.000587
    59  H    0.039766   0.001233
    60  H    0.005603  -0.000021
    61  C    0.082001  -0.000028
    62  H    0.036160   0.000508
    63  H    0.016163  -0.000011
    64  H    0.005840  -0.000614
    65  C    0.081101   0.003128
    66  H    0.005522  -0.000168
    67  H    0.001603   0.006727
    68  H    0.017093  -0.000165
    69  C    0.073038  -0.000257
    70  H    0.008057  -0.000064
    71  H    0.032908   0.000024
    72  H    0.025749   0.001637
    73  O   -0.486364   0.194207
    74  C    0.051520  -0.083426
    75  H    0.188028  -0.002789
    76  O   -0.151249  -0.037040
 Sum of Mulliken charges =  -0.00000   2.00000
 Mulliken charges and spin densities with hydrogens summed into heavy atoms:
               1          2
     1  P    0.227914   0.208239
     2  N   -0.223756  -0.049152
     3  C    0.180864  -0.001773
     6  O   -0.359182  -0.006549
     7  P    0.230165   0.237651
     8  C    0.016108  -0.013320
     9  C    0.032778  -0.005505
    11  C    0.146956  -0.073467
    13  C    0.016717   0.004276
    15  C    0.044804  -0.019061
    16  C    0.168604  -0.005500
    19  Ru  -0.127919   1.578268
    21  C   -0.356729   0.008631
    22  C   -0.375272   0.008496
    23  C   -0.374693   0.012441
    24  C   -0.380895   0.004550
    25  C    0.152647   0.000628
    29  C    0.131457   0.003565
    33  C    0.134924   0.006945
    37  C    0.114167   0.008865
    41  C    0.148504   0.001258
    45  C    0.134615  -0.000710
    49  C    0.080623   0.001787
    53  C    0.123305   0.009173
    57  C    0.126126  -0.001403
    61  C    0.140164  -0.000145
    65  C    0.105319   0.009523
    69  C    0.139752   0.001339
    73  O   -0.298335   0.191417
    74  C    0.051520  -0.083426
    76  O   -0.151249  -0.037040
 Electronic spatial extent (au):  <R**2>=          13424.0569
 Charge=             -0.0000 electrons
 Dipole moment (field-independent basis, Debye):
    X=              3.0058    Y=             13.3498    Z=             -0.6218  Tot=             13.6981
 Quadrupole moment (field-independent basis, Debye-Ang):
   XX=           -187.8069   YY=           -205.7841   ZZ=           -236.0469
   XY=             -3.4001   XZ=            -11.8363   YZ=              5.4371
 Traceless Quadrupole moment (field-independent basis, Debye-Ang):
   XX=             22.0724   YY=              4.0952   ZZ=            -26.1676
   XY=             -3.4001   XZ=            -11.8363   YZ=              5.4371
 Octapole moment (field-independent basis, Debye-Ang**2):
  XXX=             23.4220  YYY=            140.6445  ZZZ=            -14.0999  XYY=             13.9588
  XXY=             -9.5619  XXZ=              0.9445  XZZ=             14.8017  YZZ=             -5.8066
  YYZ=            -14.4218  XYZ=             -1.4522
 Hexadecapole moment (field-independent basis, Debye-Ang**3):
 XXXX=         -10660.2949 YYYY=          -3668.8473 ZZZZ=          -3444.9353 XXXY=            -14.9817
 XXXZ=            -52.0728 YYYX=             -1.8800 YYYZ=             52.1923 ZZZX=            -45.9118
 ZZZY=             29.4245 XXYY=          -2418.3747 XXZZ=          -2323.2542 YYZZ=          -1249.7228
 XXYZ=              4.5186 YYXZ=            -80.8664 ZZXY=            -11.8360
 N-N= 4.522865979903D+03 E-N=-1.370259642123D+04  KE= 1.921834906737D+03
                          Isotropic Fermi Contact Couplings
        Atom                 a.u.       MegaHertz       Gauss      10(-4) cm-1
     1  P(31)              0.33318     301.70883     107.65721     100.63923
     2  N(14)              0.14579      23.55336       8.40443       7.85656
     3  C(13)             -0.00592      -3.32880      -1.18780      -1.11037
     4  H(1)               0.00098       2.18671       0.78027       0.72941
     5  H(1)              -0.00058      -1.29643      -0.46260      -0.43244
     6  O(17)              0.00678      -2.05487      -0.73323      -0.68543
     7  P(31)              0.37149     336.39803     120.03518     112.21030
     8  C(13)              0.00006       0.03195       0.01140       0.01066
     9  C(13)              0.00530       2.98014       1.06339       0.99407
    10  H(1)               0.00063       1.41519       0.50497       0.47206
    11  C(13)             -0.00653      -3.67313      -1.31066      -1.22522
    12  H(1)               0.00080       1.77907       0.63482       0.59343
    13  C(13)              0.00603       3.38777       1.20884       1.13004
    14  H(1)               0.00054       1.20227       0.42900       0.40103
    15  C(13)             -0.00200      -1.12372      -0.40097      -0.37483
    16  C(13)             -0.00845      -4.74717      -1.69391      -1.58349
    17  H(1)              -0.00018      -0.40240      -0.14359      -0.13423
    18  H(1)              -0.00114      -2.54412      -0.90780      -0.84863
    19  Ru(99)            -0.00001       0.00142       0.00051       0.00047
    20  H(1)               0.00045       1.00907       0.36006       0.33659
    21  C(13)              0.01720       9.66691       3.44940       3.22454
    22  C(13)              0.01383       7.77501       2.77432       2.59347
    23  C(13)              0.01567       8.80887       3.14322       2.93832
    24  C(13)              0.01071       6.02074       2.14835       2.00830
    25  C(13)             -0.00127      -0.71153      -0.25389      -0.23734
    26  H(1)               0.00002       0.05559       0.01984       0.01854
    27  H(1)               0.00004       0.09841       0.03511       0.03283
    28  H(1)              -0.00007      -0.14721      -0.05253      -0.04910
    29  C(13)              0.00279       1.56800       0.55950       0.52303
    30  H(1)              -0.00002      -0.04954      -0.01768      -0.01652
    31  H(1)              -0.00002      -0.04454      -0.01589      -0.01486
    32  H(1)               0.00000       0.00008       0.00003       0.00003
    33  C(13)              0.00957       5.38195       1.92041       1.79522
    34  H(1)               0.00133       2.97348       1.06101       0.99185
    35  H(1)               0.00007       0.16458       0.05873       0.05490
    36  H(1)               0.00020       0.44031       0.15711       0.14687
    37  C(13)              0.01154       6.48396       2.31364       2.16282
    38  H(1)               0.00015       0.32868       0.11728       0.10964
    39  H(1)               0.00176       3.94218       1.40667       1.31497
    40  H(1)               0.00009       0.20547       0.07332       0.06854
    41  C(13)              0.00067       0.37469       0.13370       0.12498
    42  H(1)              -0.00001      -0.01599      -0.00570      -0.00533
    43  H(1)              -0.00001      -0.02048      -0.00731      -0.00683
    44  H(1)              -0.00003      -0.07551      -0.02694      -0.02519
    45  C(13)              0.00109       0.61510       0.21948       0.20518
    46  H(1)               0.00000       0.00206       0.00074       0.00069
    47  H(1)              -0.00001      -0.02699      -0.00963      -0.00900
    48  H(1)              -0.00011      -0.24725      -0.08822      -0.08247
    49  C(13)              0.00491       2.75772       0.98402       0.91988
    50  H(1)              -0.00005      -0.11960      -0.04268      -0.03989
    51  H(1)              -0.00005      -0.11860      -0.04232      -0.03956
    52  H(1)              -0.00000      -0.00955      -0.00341      -0.00318
    53  C(13)              0.01231       6.92055       2.46942       2.30845
    54  H(1)               0.00176       3.93475       1.40402       1.31249
    55  H(1)               0.00007       0.15069       0.05377       0.05027
    56  H(1)               0.00027       0.61275       0.21864       0.20439
    57  C(13)             -0.00089      -0.50113      -0.17882      -0.16716
    58  H(1)               0.00003       0.07213       0.02574       0.02406
    59  H(1)               0.00006       0.12986       0.04634       0.04332
    60  H(1)              -0.00001      -0.02221      -0.00793      -0.00741
    61  C(13)             -0.00028      -0.15773      -0.05628      -0.05261
    62  H(1)              -0.00000      -0.00620      -0.00221      -0.00207
    63  H(1)              -0.00002      -0.05091      -0.01817      -0.01698
    64  H(1)              -0.00019      -0.43571      -0.15547      -0.14534
    65  C(13)              0.01287       7.23606       2.58200       2.41369
    66  H(1)               0.00012       0.27191       0.09702       0.09070
    67  H(1)               0.00176       3.93270       1.40329       1.31181
    68  H(1)               0.00010       0.22802       0.08136       0.07606
    69  C(13)              0.00213       1.19932       0.42795       0.40005
    70  H(1)              -0.00001      -0.02653      -0.00947      -0.00885
    71  H(1)              -0.00003      -0.05594      -0.01996      -0.01866
    72  H(1)              -0.00004      -0.09140      -0.03261      -0.03049
    73  O(17)              0.17499     -53.03906     -18.92565     -17.69193
    74  C(13)             -0.03630     -20.40225      -7.28003      -6.80546
    75  H(1)              -0.00292      -6.53003      -2.33008      -2.17818
    76  O(17)             -0.01349       4.08801       1.45870       1.36361
 --------------------------------------------------------
       Center         ----  Spin Dipole Couplings  ----
                      3XX-RR        3YY-RR        3ZZ-RR
 --------------------------------------------------------
     1   Atom        0.145715     -0.007586     -0.138129
     2   Atom       -0.028924      0.222948     -0.194024
     3   Atom        0.004360      0.002977     -0.007337
     4   Atom        0.000084      0.002518     -0.002602
     5   Atom       -0.000350     -0.002412      0.002762
     6   Atom        0.015902     -0.002276     -0.013625
     7   Atom        0.140006      0.052574     -0.192579
     8   Atom        0.008038      0.019685     -0.027723
     9   Atom        0.000703      0.014627     -0.015329
    10   Atom       -0.001861      0.003512     -0.001651
    11   Atom        0.010436      0.038847     -0.049283
    12   Atom        0.003088     -0.002293     -0.000795
    13   Atom        0.000748      0.009109     -0.009858
    14   Atom       -0.001668      0.002980     -0.001313
    15   Atom       -0.005214      0.022850     -0.017637
    16   Atom        0.006366      0.000018     -0.006385
    17   Atom       -0.000746      0.003956     -0.003210
    18   Atom       -0.000658      0.000140      0.000518
    19   Atom        0.388235      0.235704     -0.623939
    20   Atom       -0.011706     -0.011389      0.023095
    21   Atom        0.001516     -0.011776      0.010261
    22   Atom        0.011588     -0.010376     -0.001212
    23   Atom        0.012808     -0.007939     -0.004869
    24   Atom        0.002961     -0.007256      0.004295
    25   Atom        0.000068     -0.000096      0.000028
    26   Atom       -0.000497      0.003350     -0.002853
    27   Atom       -0.003379      0.000689      0.002690
    28   Atom       -0.000412     -0.000262      0.000674
    29   Atom        0.001973     -0.005308      0.003335
    30   Atom        0.000100     -0.002440      0.002340
    31   Atom       -0.000472     -0.005920      0.006392
    32   Atom        0.002768     -0.002650     -0.000118
    33   Atom        0.008700     -0.003414     -0.005286
    34   Atom        0.001614     -0.001113     -0.000501
    35   Atom        0.004342     -0.002347     -0.001995
    36   Atom        0.002038     -0.000015     -0.002023
    37   Atom        0.006468     -0.005280     -0.001188
    38   Atom        0.004424     -0.002132     -0.002292
    39   Atom        0.002240     -0.001442     -0.000798
    40   Atom        0.001391     -0.002071      0.000681
    41   Atom        0.006023     -0.001289     -0.004734
    42   Atom        0.002537     -0.000183     -0.002354
    43   Atom        0.004519     -0.001886     -0.002632
    44   Atom        0.004676      0.000891     -0.005567
    45   Atom        0.001289     -0.003705      0.002416
    46   Atom        0.000234     -0.000406      0.000172
    47   Atom       -0.000255     -0.005148      0.005403
    48   Atom        0.000809     -0.001286      0.000477
    49   Atom        0.002080     -0.005826      0.003746
    50   Atom        0.000452     -0.002719      0.002267
    51   Atom       -0.000594     -0.006572      0.007166
    52   Atom        0.003173     -0.002634     -0.000539
    53   Atom        0.011245     -0.004713     -0.006532
    54   Atom        0.001788     -0.001567     -0.000221
    55   Atom        0.004781     -0.002685     -0.002096
    56   Atom        0.002207     -0.000067     -0.002140
    57   Atom       -0.000023     -0.000958      0.000981
    58   Atom       -0.000784      0.003165     -0.002381
    59   Atom       -0.003654     -0.000447      0.004101
    60   Atom       -0.000444     -0.000669      0.001113
    61   Atom        0.000622     -0.004899      0.004277
    62   Atom       -0.001156     -0.003267      0.004423
    63   Atom       -0.001465     -0.004798      0.006262
    64   Atom        0.000489     -0.001942      0.001453
    65   Atom        0.006619     -0.004332     -0.002287
    66   Atom        0.004528     -0.002298     -0.002230
    67   Atom        0.002143     -0.001572     -0.000571
    68   Atom        0.001115     -0.001426      0.000312
    69   Atom        0.007095     -0.001977     -0.005118
    70   Atom        0.002613     -0.000397     -0.002215
    71   Atom        0.004931     -0.001853     -0.003078
    72   Atom        0.005389      0.001149     -0.006538
    73   Atom        0.525707     -0.082978     -0.442729
    74   Atom       -0.037238     -0.050929      0.088167
    75   Atom       -0.030165      0.001680      0.028485
    76   Atom       -0.040012     -0.058142      0.098155
 --------------------------------------------------------
                        XY            XZ            YZ
 --------------------------------------------------------
     1   Atom        0.269546     -0.148887     -0.115853
     2   Atom        0.024203     -0.122845      0.029526
     3   Atom        0.006714     -0.005485     -0.002568
     4   Atom        0.004534     -0.001745     -0.003674
     5   Atom        0.004958     -0.005895     -0.008308
     6   Atom        0.005081     -0.007867     -0.000916
     7   Atom       -0.344042     -0.151672      0.123554
     8   Atom        0.008008     -0.022140     -0.004101
     9   Atom        0.001246     -0.011457     -0.002073
    10   Atom        0.000511      0.000432     -0.000502
    11   Atom        0.004177     -0.045274      0.007206
    12   Atom       -0.000251     -0.002836     -0.000021
    13   Atom       -0.000326     -0.004079      0.003745
    14   Atom       -0.000500      0.000380      0.000829
    15   Atom       -0.002187     -0.034907      0.011127
    16   Atom       -0.007238     -0.004179      0.001361
    17   Atom       -0.004441     -0.001361      0.003129
    18   Atom       -0.004888     -0.005093      0.008112
    19   Atom       -0.011678     -0.017155     -0.018281
    20   Atom       -0.000992     -0.008615      0.009197
    21   Atom       -0.010026      0.019999     -0.010831
    22   Atom        0.010765     -0.020179     -0.010063
    23   Atom       -0.015467     -0.019488      0.012300
    24   Atom        0.009325      0.014605      0.009331
    25   Atom        0.003779      0.003618      0.006000
    26   Atom        0.003884      0.000984      0.003662
    27   Atom        0.003567      0.004354      0.009870
    28   Atom        0.001766      0.001906      0.002958
    29   Atom        0.000212      0.007282     -0.000364
    30   Atom        0.000617      0.003320      0.000548
    31   Atom       -0.000478      0.008541     -0.002701
    32   Atom       -0.001037      0.004240     -0.001077
    33   Atom        0.005337      0.000621      0.000156
    34   Atom        0.001921      0.001724      0.001174
    35   Atom        0.000889      0.001281      0.000594
    36   Atom        0.003840      0.000427      0.000153
    37   Atom        0.004639     -0.008111     -0.003203
    38   Atom        0.001811     -0.001663      0.000164
    39   Atom       -0.000539     -0.002668      0.000466
    40   Atom        0.001214     -0.003584     -0.001739
    41   Atom       -0.004441     -0.000807      0.000111
    42   Atom       -0.002794     -0.001032      0.000446
    43   Atom       -0.002407      0.001155     -0.000553
    44   Atom       -0.006555      0.001212     -0.001305
    45   Atom       -0.003404     -0.006506      0.004726
    46   Atom       -0.006022     -0.008033      0.008282
    47   Atom       -0.000658     -0.005996      0.001858
    48   Atom       -0.001764     -0.003203      0.002375
    49   Atom        0.000843      0.007862      0.001404
    50   Atom       -0.000331      0.003562      0.000069
    51   Atom        0.000886      0.008429      0.003236
    52   Atom        0.002084      0.004883      0.001874
    53   Atom       -0.005677      0.001737     -0.000399
    54   Atom       -0.001889      0.002074     -0.001250
    55   Atom       -0.000591      0.001438     -0.000602
    56   Atom       -0.004206      0.000663     -0.000256
    57   Atom       -0.003309      0.004176     -0.006316
    58   Atom       -0.003798      0.001236     -0.004356
    59   Atom       -0.003843      0.004206     -0.009663
    60   Atom       -0.001742      0.001990     -0.003031
    61   Atom        0.002031     -0.006356     -0.003736
    62   Atom        0.003974     -0.008993     -0.007842
    63   Atom       -0.000409     -0.005615     -0.000127
    64   Atom        0.001071     -0.003446     -0.001977
    65   Atom       -0.006247     -0.007703      0.003826
    66   Atom       -0.002037     -0.001540     -0.000208
    67   Atom        0.000143     -0.002847     -0.000379
    68   Atom       -0.001745     -0.003481      0.002148
    69   Atom        0.004527     -0.002100     -0.000970
    70   Atom        0.002640     -0.001655     -0.000871
    71   Atom        0.002683      0.000735      0.000394
    72   Atom        0.006918     -0.000314      0.000160
    73   Atom       -0.109847     -0.048574     -0.007358
    74   Atom       -0.003209      0.003431      0.014119
    75   Atom        0.003008      0.005593      0.031503
    76   Atom        0.000095      0.005639      0.015512
 --------------------------------------------------------


 ---------------------------------------------------------------------------------
              Anisotropic Spin Dipole Couplings in Principal Axis System
 ---------------------------------------------------------------------------------

       Atom             a.u.   MegaHertz   Gauss  10(-4) cm-1        Axes

              Baa    -0.2119   -45.805   -16.344   -15.279 -0.5130  0.8203  0.2529
     1 P(31)  Bbb    -0.2019   -43.645   -15.574   -14.559  0.4098 -0.0248  0.9118
              Bcc     0.4138    89.450    31.918    29.837  0.7542  0.5714 -0.3234
 
              Baa    -0.2624   -10.119    -3.611    -3.375  0.4705 -0.0769  0.8790
     2 N(14)  Bbb     0.0362     1.398     0.499     0.466  0.8795 -0.0390 -0.4742
              Bcc     0.2261     8.721     3.112     2.909  0.0708  0.9963  0.0493
 
              Baa    -0.0095    -1.276    -0.455    -0.426  0.3715 -0.0089  0.9284
     3 C(13)  Bbb    -0.0027    -0.356    -0.127    -0.119 -0.5698  0.7873  0.2355
              Bcc     0.0122     1.631     0.582     0.544  0.7330  0.6165 -0.2874
 
              Baa    -0.0047    -2.486    -0.887    -0.829 -0.2429  0.5592  0.7926
     4 H(1)   Bbb    -0.0029    -1.549    -0.553    -0.517  0.8035 -0.3418  0.4874
              Bcc     0.0076     4.035     1.440     1.346  0.5435  0.7553 -0.3663
 
              Baa    -0.0086    -4.577    -1.633    -1.527 -0.1024  0.8271  0.5527
     5 H(1)   Bbb    -0.0047    -2.482    -0.886    -0.828  0.8641 -0.2013  0.4614
              Bcc     0.0132     7.059     2.519     2.355 -0.4928 -0.5248  0.6940
 
              Baa    -0.0156     1.129     0.403     0.377  0.2463 -0.0274  0.9688
     6 O(17)  Bbb    -0.0035     0.254     0.091     0.085 -0.2205  0.9718  0.0835
              Bcc     0.0191    -1.383    -0.493    -0.461  0.9438  0.2342 -0.2334
 
              Baa    -0.2566   -55.471   -19.793   -18.503  0.6369  0.4621  0.6171
     7 P(31)  Bbb    -0.2418   -52.277   -18.654   -17.438 -0.2655 -0.6201  0.7383
              Bcc     0.4984   107.747    38.447    35.941  0.7238 -0.6340 -0.2722
 
              Baa    -0.0383    -5.140    -1.834    -1.714  0.4305  0.0044  0.9026
     8 C(13)  Bbb     0.0101     1.361     0.486     0.454 -0.6582  0.6858  0.3106
              Bcc     0.0282     3.779     1.348     1.261  0.6176  0.7278 -0.2981
 
              Baa    -0.0213    -2.864    -1.022    -0.955  0.4593  0.0352  0.8876
     9 C(13)  Bbb     0.0062     0.828     0.295     0.276  0.8669 -0.2355 -0.4393
              Bcc     0.0152     2.036     0.726     0.679  0.1935  0.9712 -0.1387
 
              Baa    -0.0023    -1.221    -0.436    -0.407  0.7740 -0.1220 -0.6214
    10 H(1)   Bbb    -0.0013    -0.700    -0.250    -0.234  0.6274  0.0147  0.7786
              Bcc     0.0036     1.921     0.685     0.641  0.0858  0.9924 -0.0879
 
              Baa    -0.0743    -9.966    -3.556    -3.324  0.4729 -0.0734  0.8780
    11 C(13)  Bbb     0.0348     4.669     1.666     1.558  0.8771 -0.0557 -0.4771
              Bcc     0.0395     5.297     1.890     1.767  0.0839  0.9957  0.0380
 
              Baa    -0.0024    -1.297    -0.463    -0.433  0.3436  0.7182  0.6051
    12 H(1)   Bbb    -0.0022    -1.152    -0.411    -0.384 -0.3158  0.6952 -0.6458
              Bcc     0.0046     2.449     0.874     0.817  0.8844 -0.0308 -0.4657
 
              Baa    -0.0118    -1.586    -0.566    -0.529  0.3008 -0.1635  0.9396
    13 C(13)  Bbb     0.0019     0.249     0.089     0.083  0.9452  0.1823 -0.2709
              Bcc     0.0100     1.337     0.477     0.446 -0.1270  0.9696  0.2094
 
              Baa    -0.0021    -1.101    -0.393    -0.367  0.7873  0.1752 -0.5912
    14 H(1)   Bbb    -0.0011    -0.591    -0.211    -0.197  0.6103 -0.0852  0.7875
              Bcc     0.0032     1.692     0.604     0.565 -0.0876  0.9808  0.1740
 
              Baa    -0.0476    -6.389    -2.280    -2.131  0.6291 -0.1021  0.7706
    15 C(13)  Bbb     0.0150     2.016     0.720     0.673  0.5873  0.7119 -0.3851
              Bcc     0.0326     4.373     1.560     1.459 -0.5092  0.6948  0.5079
 
              Baa    -0.0078    -1.043    -0.372    -0.348  0.3604  0.1749  0.9162
    16 C(13)  Bbb    -0.0043    -0.578    -0.206    -0.193  0.4372  0.8360 -0.3315
              Bcc     0.0121     1.620     0.578     0.541  0.8240 -0.5201 -0.2249
 
              Baa    -0.0044    -2.370    -0.846    -0.790 -0.1929 -0.4306  0.8817
    17 H(1)   Bbb    -0.0032    -1.730    -0.617    -0.577  0.8545  0.3679  0.3666
              Bcc     0.0077     4.099     1.463     1.367 -0.4822  0.8242  0.2970
 
              Baa    -0.0078    -4.154    -1.482    -1.386 -0.0154  0.7105 -0.7035
    18 H(1)   Bbb    -0.0045    -2.404    -0.858    -0.802  0.8779  0.3464  0.3306
              Bcc     0.0123     6.558     2.340     2.188 -0.4786  0.6125  0.6291
 
              Baa    -0.6246    15.305     5.461     5.105  0.0172  0.0215  0.9996
    19 Ru(99) Bbb     0.2353    -5.765    -2.057    -1.923  0.0736  0.9970 -0.0227
              Bcc     0.3894    -9.541    -3.404    -3.182  0.9971 -0.0739 -0.0155
 
              Baa    -0.0147    -7.868    -2.808    -2.625  0.6775 -0.6644  0.3157
    20 H(1)   Bbb    -0.0125    -6.693    -2.388    -2.233  0.7033  0.7108 -0.0134
              Bcc     0.0273    14.561     5.196     4.857 -0.2155  0.2311  0.9488
 
              Baa    -0.0172    -2.303    -0.822    -0.768  0.4614  0.8871  0.0139
    21 C(13)  Bbb    -0.0142    -1.909    -0.681    -0.637 -0.6545  0.3297  0.6804
              Bcc     0.0314     4.212     1.503     1.405  0.5990 -0.3230  0.7327
 
              Baa    -0.0174    -2.338    -0.834    -0.780  0.2806  0.6190  0.7335
    22 C(13)  Bbb    -0.0141    -1.886    -0.673    -0.629 -0.5935  0.7125 -0.3742
              Bcc     0.0315     4.224     1.507     1.409  0.7543  0.3304 -0.5673
 
              Baa    -0.0190    -2.555    -0.912    -0.852  0.1759 -0.6106  0.7721
    23 C(13)  Bbb    -0.0155    -2.075    -0.740    -0.692  0.6332  0.6708  0.3861
              Bcc     0.0345     4.629     1.652     1.544  0.7537 -0.4210 -0.5047
 
              Baa    -0.0129    -1.729    -0.617    -0.577 -0.3696  0.9114 -0.1808
    24 C(13)  Bbb    -0.0110    -1.470    -0.524    -0.490 -0.6752 -0.1298  0.7261
              Bcc     0.0238     3.199     1.142     1.067  0.6383  0.3905  0.6634
 
              Baa    -0.0060    -0.810    -0.289    -0.270 -0.0368  0.7215 -0.6915
    25 C(13)  Bbb    -0.0030    -0.400    -0.143    -0.133  0.8627 -0.3263 -0.3864
              Bcc     0.0090     1.211     0.432     0.404  0.5044  0.6107  0.6104
 
              Baa    -0.0048    -2.537    -0.905    -0.846  0.2652 -0.4996  0.8246
    26 H(1)   Bbb    -0.0023    -1.252    -0.447    -0.417  0.8462 -0.2894 -0.4474
              Bcc     0.0071     3.789     1.352     1.264  0.4622  0.8165  0.3461
 
              Baa    -0.0083    -4.404    -1.571    -1.469  0.0829  0.7234 -0.6854
    27 H(1)   Bbb    -0.0052    -2.791    -0.996    -0.931  0.9450 -0.2754 -0.1764
              Bcc     0.0135     7.195     2.567     2.400  0.3163  0.6331  0.7065
 
              Baa    -0.0028    -1.493    -0.533    -0.498 -0.0825  0.7805 -0.6197
    28 H(1)   Bbb    -0.0018    -0.939    -0.335    -0.313  0.8825 -0.2318 -0.4094
              Bcc     0.0046     2.432     0.868     0.811  0.4631  0.5806  0.6696
 
              Baa    -0.0055    -0.738    -0.263    -0.246 -0.3137  0.9023  0.2957
    29 C(13)  Bbb    -0.0045    -0.600    -0.214    -0.200  0.6696  0.4310 -0.6048
              Bcc     0.0100     1.338     0.477     0.446  0.6732 -0.0083  0.7394
 
              Baa    -0.0026    -1.400    -0.500    -0.467 -0.4368  0.8781  0.1952
    30 H(1)   Bbb    -0.0022    -1.168    -0.417    -0.389  0.6860  0.4655 -0.5592
              Bcc     0.0048     2.568     0.916     0.857  0.5820  0.1104  0.8057
 
              Baa    -0.0074    -3.927    -1.401    -1.310 -0.5334  0.7037  0.4695
    31 H(1)   Bbb    -0.0051    -2.746    -0.980    -0.916  0.6442  0.6976 -0.3136
              Bcc     0.0125     6.673     2.381     2.226  0.5482 -0.1352  0.8254
 
              Baa    -0.0033    -1.773    -0.633    -0.592 -0.4232  0.5272  0.7369
    32 H(1)   Bbb    -0.0027    -1.456    -0.519    -0.486  0.4276  0.8332 -0.3506
              Bcc     0.0061     3.229     1.152     1.077  0.7988 -0.1667  0.5780
 
              Baa    -0.0055    -0.733    -0.262    -0.245 -0.3346  0.8380  0.4310
    33 C(13)  Bbb    -0.0053    -0.708    -0.253    -0.236  0.1189 -0.4162  0.9015
              Bcc     0.0107     1.441     0.514     0.481  0.9348  0.3529  0.0397
 
              Baa    -0.0022    -1.166    -0.416    -0.389 -0.3177  0.8990 -0.3014
    34 H(1)   Bbb    -0.0015    -0.778    -0.278    -0.259 -0.5314  0.0944  0.8418
              Bcc     0.0036     1.944     0.694     0.648  0.7852  0.4276  0.4478
 
              Baa    -0.0028    -1.489    -0.531    -0.497  0.0105  0.7931 -0.6090
    35 H(1)   Bbb    -0.0019    -1.034    -0.369    -0.345 -0.2407  0.5931  0.7683
              Bcc     0.0047     2.523     0.900     0.842  0.9706  0.1385  0.1971
 
              Baa    -0.0030    -1.592    -0.568    -0.531 -0.6087  0.7798  0.1462
    36 H(1)   Bbb    -0.0020    -1.082    -0.386    -0.361  0.0409 -0.1532  0.9873
              Bcc     0.0050     2.675     0.954     0.892  0.7923  0.6070  0.0614
 
              Baa    -0.0070    -0.946    -0.338    -0.316 -0.0829  0.9183  0.3871
    37 C(13)  Bbb    -0.0063    -0.841    -0.300    -0.281  0.5853 -0.2695  0.7647
              Bcc     0.0133     1.787     0.638     0.596  0.8066  0.2900 -0.5151
 
              Baa    -0.0032    -1.693    -0.604    -0.565  0.3070 -0.6448  0.7000
    38 H(1)   Bbb    -0.0020    -1.093    -0.390    -0.365 -0.0282  0.7290  0.6839
              Bcc     0.0052     2.786     0.994     0.929  0.9513  0.2297 -0.2056
 
              Baa    -0.0024    -1.264    -0.451    -0.422  0.4814 -0.1539  0.8629
    39 H(1)   Bbb    -0.0015    -0.808    -0.288    -0.269  0.1896  0.9794  0.0689
              Bcc     0.0039     2.072     0.739     0.691  0.8558 -0.1305 -0.5006
 
              Baa    -0.0031    -1.638    -0.585    -0.546  0.3086  0.7156  0.6266
    40 H(1)   Bbb    -0.0022    -1.149    -0.410    -0.383 -0.6423  0.6427 -0.4177
              Bcc     0.0052     2.788     0.995     0.930  0.7016  0.2735 -0.6580
 
              Baa    -0.0048    -0.647    -0.231    -0.216  0.1248  0.1258  0.9842
    41 C(13)  Bbb    -0.0033    -0.449    -0.160    -0.150  0.4106  0.8964 -0.1667
              Bcc     0.0082     1.096     0.391     0.366  0.9032 -0.4249 -0.0602
 
              Baa    -0.0026    -1.376    -0.491    -0.459  0.2633  0.1289  0.9561
    42 H(1)   Bbb    -0.0019    -1.007    -0.359    -0.336  0.4762  0.8445 -0.2450
              Bcc     0.0045     2.383     0.850     0.795  0.8390 -0.5198 -0.1610
 
              Baa    -0.0029    -1.564    -0.558    -0.522  0.0512  0.5564  0.8293
    43 H(1)   Bbb    -0.0026    -1.381    -0.493    -0.461  0.3476  0.7686 -0.5371
              Bcc     0.0055     2.946     1.051     0.983  0.9363 -0.3158  0.1540
 
              Baa    -0.0058    -3.106    -1.108    -1.036  0.0149  0.2048  0.9787
    44 H(1)   Bbb    -0.0040    -2.126    -0.759    -0.709  0.6097  0.7739 -0.1713
              Bcc     0.0098     5.232     1.867     1.745  0.7925 -0.5993  0.1133
 
              Baa    -0.0063    -0.843    -0.301    -0.281 -0.0421  0.8643 -0.5012
    45 C(13)  Bbb    -0.0044    -0.594    -0.212    -0.198  0.7876  0.3374  0.5156
              Bcc     0.0107     1.437     0.513     0.479 -0.6148  0.3731  0.6949
 
              Baa    -0.0089    -4.737    -1.690    -1.580  0.3473 -0.5175  0.7820
    46 H(1)   Bbb    -0.0061    -3.238    -1.155    -1.080  0.7506  0.6533  0.0990
              Bcc     0.0149     7.975     2.846     2.660 -0.5622  0.5525  0.6154
 
              Baa    -0.0055    -2.950    -1.053    -0.984 -0.1731  0.9509 -0.2566
    47 H(1)   Bbb    -0.0039    -2.096    -0.748    -0.699  0.8319  0.2806  0.4787
              Bcc     0.0095     5.046     1.800     1.683 -0.5272  0.1306  0.8396
 
              Baa    -0.0030    -1.627    -0.580    -0.543  0.2750 -0.6629  0.6964
    48 H(1)   Bbb    -0.0021    -1.133    -0.404    -0.378  0.7161  0.6245  0.3117
              Bcc     0.0052     2.759     0.985     0.920 -0.6415  0.4130  0.6465
 
              Baa    -0.0061    -0.814    -0.291    -0.272  0.1454  0.9564 -0.2533
    49 C(13)  Bbb    -0.0049    -0.658    -0.235    -0.219  0.7331 -0.2761 -0.6216
              Bcc     0.0110     1.472     0.525     0.491  0.6644  0.0953  0.7413
 
              Baa    -0.0029    -1.539    -0.549    -0.513  0.3823  0.8818 -0.2762
    50 H(1)   Bbb    -0.0022    -1.150    -0.410    -0.383  0.6904 -0.4713 -0.5489
              Bcc     0.0050     2.688     0.959     0.897  0.6141 -0.0192  0.7890
 
              Baa    -0.0077    -4.094    -1.461    -1.366  0.3537  0.8517 -0.3866
    51 H(1)   Bbb    -0.0054    -2.889    -1.031    -0.964  0.7740 -0.4986 -0.3903
              Bcc     0.0131     6.983     2.492     2.329  0.5252  0.1612  0.8356
 
              Baa    -0.0041    -2.180    -0.778    -0.727 -0.4101 -0.4416  0.7980
    52 H(1)   Bbb    -0.0032    -1.725    -0.615    -0.575 -0.4595  0.8558  0.2375
              Bcc     0.0073     3.905     1.393     1.302  0.7878  0.2693  0.5539
 
              Baa    -0.0068    -0.910    -0.325    -0.303 -0.2274 -0.4594  0.8586
    53 C(13)  Bbb    -0.0064    -0.864    -0.308    -0.288  0.2185  0.8352  0.5047
              Bcc     0.0132     1.774     0.633     0.592  0.9490 -0.3024  0.0896
 
              Baa    -0.0025    -1.328    -0.474    -0.443  0.2900  0.9252  0.2446
    54 H(1)   Bbb    -0.0015    -0.810    -0.289    -0.270 -0.5504 -0.0479  0.8336
              Bcc     0.0040     2.138     0.763     0.713  0.7830 -0.3764  0.4953
 
              Baa    -0.0031    -1.639    -0.585    -0.547 -0.0424  0.8213  0.5690
    55 H(1)   Bbb    -0.0021    -1.100    -0.392    -0.367 -0.2163 -0.5635  0.7973
              Bcc     0.0051     2.738     0.977     0.913  0.9754 -0.0893  0.2015
 
              Baa    -0.0033    -1.773    -0.633    -0.591  0.6093  0.7736 -0.1738
    56 H(1)   Bbb    -0.0022    -1.156    -0.412    -0.385  0.0360  0.1920  0.9807
              Bcc     0.0055     2.928     1.045     0.977  0.7921 -0.6039  0.0891
 
              Baa    -0.0064    -0.857    -0.306    -0.286 -0.0501  0.7441  0.6661
    57 C(13)  Bbb    -0.0030    -0.405    -0.145    -0.135  0.8693  0.3609 -0.3377
              Bcc     0.0094     1.263     0.450     0.421  0.4917 -0.5622  0.6650
 
              Baa    -0.0050    -2.654    -0.947    -0.885  0.2617  0.5475  0.7949
    58 H(1)   Bbb    -0.0025    -1.315    -0.469    -0.439  0.8628  0.2363 -0.4468
              Bcc     0.0074     3.969     1.416     1.324 -0.4325  0.8028 -0.4105
 
              Baa    -0.0082    -4.352    -1.553    -1.452  0.1379  0.8003  0.5836
    59 H(1)   Bbb    -0.0055    -2.917    -1.041    -0.973  0.9398  0.0802 -0.3321
              Bcc     0.0136     7.269     2.594     2.425  0.3126 -0.5943  0.7411
 
              Baa    -0.0030    -1.582    -0.565    -0.528  0.1403  0.8263  0.5455
    60 H(1)   Bbb    -0.0018    -0.940    -0.335    -0.314  0.8796  0.1490 -0.4518
              Bcc     0.0047     2.522     0.900     0.841  0.4546 -0.5432  0.7059
 
              Baa    -0.0062    -0.838    -0.299    -0.279  0.0692  0.9261  0.3708
    61 C(13)  Bbb    -0.0040    -0.536    -0.191    -0.179  0.8186 -0.2652  0.5095
              Bcc     0.0102     1.373     0.490     0.458 -0.5702 -0.2682  0.7765
 
              Baa    -0.0089    -4.753    -1.696    -1.585  0.4624  0.5919  0.6601
    62 H(1)   Bbb    -0.0062    -3.332    -1.189    -1.111  0.7223 -0.6833  0.1067
              Bcc     0.0152     8.084     2.885     2.697 -0.5142 -0.4275  0.7435
 
              Baa    -0.0051    -2.705    -0.965    -0.902  0.4817  0.8405  0.2481
    63 H(1)   Bbb    -0.0041    -2.212    -0.789    -0.738  0.7425 -0.5418  0.3939
              Bcc     0.0092     4.917     1.754     1.640 -0.4655  0.0056  0.8850
 
              Baa    -0.0030    -1.621    -0.578    -0.541  0.3628  0.7177  0.5944
    64 H(1)   Bbb    -0.0021    -1.118    -0.399    -0.373  0.7026 -0.6296  0.3314
              Bcc     0.0051     2.739     0.977     0.914 -0.6121 -0.2974  0.7327
 
              Baa    -0.0073    -0.981    -0.350    -0.327  0.1602  0.8882 -0.4306
    65 C(13)  Bbb    -0.0067    -0.896    -0.320    -0.299  0.5747  0.2708  0.7723
              Bcc     0.0140     1.877     0.670     0.626  0.8026 -0.3711 -0.4670
 
              Baa    -0.0033    -1.764    -0.630    -0.588  0.3098  0.7475  0.5876
    66 H(1)   Bbb    -0.0021    -1.096    -0.391    -0.365 -0.0065 -0.6163  0.7874
              Bcc     0.0054     2.860     1.020     0.954  0.9508 -0.2478 -0.1861
 
              Baa    -0.0024    -1.301    -0.464    -0.434  0.5010  0.2766  0.8201
    67 H(1)   Bbb    -0.0015    -0.812    -0.290    -0.271 -0.1958  0.9592 -0.2038
              Bcc     0.0040     2.113     0.754     0.705  0.8430  0.0585 -0.5347
 
              Baa    -0.0031    -1.651    -0.589    -0.551  0.3832 -0.5524  0.7402
    68 H(1)   Bbb    -0.0022    -1.191    -0.425    -0.397  0.6274  0.7439  0.2303
              Bcc     0.0053     2.842     1.014     0.948  0.6779 -0.3761 -0.6317
 
              Baa    -0.0055    -0.737    -0.263    -0.246  0.1243  0.1119  0.9859
    69 C(13)  Bbb    -0.0038    -0.516    -0.184    -0.172 -0.3908  0.9188 -0.0550
              Bcc     0.0093     1.253     0.447     0.418  0.9120  0.3785 -0.1579
 
              Baa    -0.0027    -1.457    -0.520    -0.486  0.2730  0.0498  0.9607
    70 H(1)   Bbb    -0.0019    -1.026    -0.366    -0.342 -0.4762  0.8747  0.0899
              Bcc     0.0047     2.483     0.886     0.828  0.8359  0.4820 -0.2625
 
              Baa    -0.0032    -1.704    -0.608    -0.569  0.0186 -0.3161  0.9485
    71 H(1)   Bbb    -0.0027    -1.464    -0.523    -0.488 -0.3402  0.8901  0.3033
              Bcc     0.0059     3.169     1.131     1.057  0.9402  0.3284  0.0910
 
              Baa    -0.0066    -3.510    -1.252    -1.171  0.0787 -0.0911  0.9927
    72 H(1)   Bbb    -0.0039    -2.096    -0.748    -0.699 -0.5892  0.7990  0.1201
              Bcc     0.0105     5.606     2.000     1.870  0.8041  0.5944 -0.0092
 
              Baa    -0.4456    32.245    11.506    10.756  0.0540  0.0366  0.9979
    73 O(17)  Bbb    -0.1015     7.344     2.620     2.450  0.1689  0.9846 -0.0453
              Bcc     0.5471   -39.589   -14.126   -13.205  0.9841 -0.1710 -0.0470
 
              Baa    -0.0531    -7.131    -2.544    -2.378  0.2180  0.9706 -0.1023
    74 C(13)  Bbb    -0.0365    -4.901    -1.749    -1.635  0.9757 -0.2193 -0.0020
              Bcc     0.0897    12.032     4.293     4.013  0.0244  0.0993  0.9948
 
              Baa    -0.0307   -16.377    -5.844    -5.463  0.9957 -0.0019 -0.0931
    75 H(1)   Bbb    -0.0191   -10.204    -3.641    -3.404 -0.0495  0.8356 -0.5471
              Bcc     0.0498    26.581     9.485     8.866  0.0788  0.5493  0.8319
 
              Baa    -0.0597     4.318     1.541     1.440  0.0235  0.9948 -0.0986
    76 O(17)  Bbb    -0.0402     2.911     1.039     0.971  0.9989 -0.0273 -0.0376
              Bcc     0.0999    -7.229    -2.580    -2.411  0.0401  0.0976  0.9944
 

 ---------------------------------------------------------------------------------

 Unable to Open any file for archive entry.
 1\1\GINC-NODE007\SP\UB3LYP TD-FC\def2SVP\C24H45N1O3P2Ru1(3)\DO57CIG\23
 -Sep-2024\0\\# td=(triplets,nstates=5,conver=3,root=1) b3lyp scrf=(smd
 ,solvent=water) def2svp empiricaldispersion=gd3bj int=ultrafine scf=xq
 c guess=read geom=check density=current\\tBut_Ru_Cis_T_Crossing_region
 _Interpol_struc_1_1_T_root_1_MLCT\\0,3\P,0,2.4014515,-0.19940783,-0.11
 653614\N,0,-0.0417056,1.45709914,-0.15991115\C,0,2.17684266,1.27599832
 ,-1.21093877\H,0,3.10560021,1.85084086,-1.32393273\H,0,1.92065794,0.83
 98456,-2.19163214\O,0,-0.12698867,-0.95352372,-1.98533833\P,0,-2.44022
 781,-0.13389154,0.13621616\C,0,1.06399807,2.13081676,-0.68118341\C,0,1
 .16283897,3.5064843,-0.65037318\H,0,2.0576877,3.96926312,-1.07394317\C
 ,0,0.14264062,4.300649,-0.06991921\H,0,0.21170983,5.38851807,-0.037530
 96\C,0,-0.96830795,3.60791689,0.47751213\H,0,-1.79895085,4.15512666,0.
 93065105\C,0,-1.04039941,2.23162234,0.43061484\C,0,-2.23444828,1.49330
 518,0.97970609\H,0,-3.14555958,2.10445086,0.91791196\H,0,-2.08372509,1
 .24191747,2.0443368\Ru,0,-0.03515366,-0.73847306,0.09003238\H,0,0.6142
 9435,-1.51063641,-2.24393095\C,0,-3.27099703,0.23643078,-1.53875054\C,
 0,-3.60871586,-1.1381009,1.26145236\C,0,3.54404641,-1.37820976,-1.0939
 9388\C,0,3.2720763,0.40056297,1.46936053\C,0,2.4711174,1.58585945,2.04
 541457\H,0,2.56334609,2.4772144,1.41352985\H,0,1.40413402,1.37843629,2
 .17738034\H,0,2.89040939,1.82745664,3.03535958\C,0,3.32143418,-0.74597
 696,2.49978924\H,0,3.47618662,-0.31697776,3.50284278\H,0,2.39902608,-1
 .33896375,2.5309077\H,0,4.15219695,-1.43319955,2.30465328\C,0,4.697404
 01,0.90769401,1.20115918\H,0,5.08756207,1.34999861,2.13297104\H,0,5.38
 264886,0.10177074,0.91037489\H,0,4.71790341,1.6902485,0.42834355\C,0,4
 .66118628,-0.59932262,-1.80882198\H,0,5.30072954,-0.03226932,-1.124068
 88\H,0,5.3003342,-1.32505543,-2.33908416\H,0,4.25546616,0.09141408,-2.
 56170859\C,0,4.13805583,-2.43902927,-0.15677548\H,0,4.63524018,-3.2076
 3167,-0.77059134\H,0,4.89212151,-2.0231797,0.522346\H,0,3.36012548,-2.
 93856021,0.4403248\C,0,2.72671653,-2.10785405,-2.16923342\H,0,1.932504
 02,-2.72701195,-1.72911553\H,0,2.30148359,-1.41183453,-2.90613029\H,0,
 3.40345479,-2.78239637,-2.71790939\C,0,-3.25746359,-1.02312845,-2.4223
 0455\H,0,-3.59331559,-0.74215905,-3.43474199\H,0,-2.24325835,-1.435339
 84,-2.49505471\H,0,-3.93781315,-1.80005175,-2.05523848\C,0,-4.71207856
 ,0.73980541,-1.3707937\H,0,-5.07924025,1.06003418,-2.3602921\H,0,-5.39
 139392,-0.04201357,-1.00787391\H,0,-4.77673272,1.60800661,-0.698094\C,
 0,-2.46269391,1.34549769,-2.23772825\H,0,-2.51624508,2.29805469,-1.693
 11445\H,0,-1.40970542,1.07322523,-2.36082027\H,0,-2.90245256,1.505756,
 -3.23584035\C,0,-2.8097869,-1.67355409,2.45782148\H,0,-1.99563744,-2.3
 4167779,2.14748543\H,0,-2.39572946,-0.86448778,3.07248137\H,0,-3.49696
 034,-2.25315913,3.09547054\C,0,-4.74785946,-0.26559365,1.81623153\H,0,
 -5.38790163,0.15865195,1.03559599\H,0,-5.38227354,-0.89710949,2.460511
 51\H,0,-4.36441103,0.55545932,2.43885142\C,0,-4.17588755,-2.33889639,0
 .49113627\H,0,-4.69787541,-2.99721241,1.20454002\H,0,-4.90332959,-2.03
 968696,-0.27399128\H,0,-3.37964957,-2.9282528,0.01150931\O,0,-0.188465
 21,-2.72552894,0.07131682\C,0,0.0267522,-0.63669007,1.92540883\H,0,-0.
 25065949,-2.87839415,-0.88841403\O,0,0.08261557,-0.58098941,3.08410409
 \\Version=ES64L-G16RevC.02\State=3-A\HF=-1998.9232189\S2=2.021948\S2-1
 =0.\S2A=2.000296\RMSD=4.133e-10\Dipole=1.1874816,5.2482617,-0.2996115\
 Quadrupole=16.381778,3.129856,-19.511634,-2.6255552,-8.8174101,3.82507
 35\PG=C01 [X(C24H45N1O3P2Ru1)]\\@
 The archive entry for this job was punched.


 GOOD SENSE ABOUT TRIVIALITIES IS BETTER THAN NONSENSE
 ABOUT THINGS THAT MATTER

                                       -- MAX BEERBOHM
 Job cpu time:       0 days 15 hours 35 minutes 41.8 seconds.
 Elapsed time:       0 days  0 hours 40 minutes 22.9 seconds.
 File lengths (MBytes):  RWF=   2983 Int=      0 D2E=      0 Chk=    153 Scr=      1
 Normal termination of Gaussian 16 at Mon Sep 23 00:13:48 2024.
