 Entering Gaussian System, Link 0=g16
 Input=A_Ru_Cis_straight_CO_DFT_B3LYP_def2SVP_smd_water_T_3MC_freezedScan_2_5.gjf
 Output=A_Ru_Cis_straight_CO_DFT_B3LYP_def2SVP_smd_water_T_3MC_freezedScan_2_5.log
 Initial command:
 /cluster/apps/gaussian/g16_c02/g16/l1.exe "/beegfs/do57cig/gauss2178642/Gau-35776.inp" -scrdir="/beegfs/do57cig/gauss2178642/"
 Default CPUs for threads: 0-23
 Default is to use a total of  24 processors:
                               24 via shared-memory
                                1 via Linda
 Entering Link 1 = /cluster/apps/gaussian/g16_c02/g16/l1.exe PID=     35777.
  
 Copyright (c) 1988-2021, Gaussian, Inc.  All Rights Reserved.
  
 This is part of the Gaussian(R) 16 program.  It is based on
 the Gaussian(R) 09 system (copyright 2009, Gaussian, Inc.),
 the Gaussian(R) 03 system (copyright 2003, Gaussian, Inc.),
 the Gaussian(R) 98 system (copyright 1998, Gaussian, Inc.),
 the Gaussian(R) 94 system (copyright 1995, Gaussian, Inc.),
 the Gaussian 92(TM) system (copyright 1992, Gaussian, Inc.),
 the Gaussian 90(TM) system (copyright 1990, Gaussian, Inc.),
 the Gaussian 88(TM) system (copyright 1988, Gaussian, Inc.),
 the Gaussian 86(TM) system (copyright 1986, Carnegie Mellon
 University), and the Gaussian 82(TM) system (copyright 1983,
 Carnegie Mellon University). Gaussian is a federally registered
 trademark of Gaussian, Inc.
  
 This software contains proprietary and confidential information,
 including trade secrets, belonging to Gaussian, Inc.
  
 This software is provided under written license and may be
 used, copied, transmitted, or stored only in accord with that
 written license.
  
 The following legend is applicable only to US Government
 contracts under FAR:
  
                    RESTRICTED RIGHTS LEGEND
  
 Use, reproduction and disclosure by the US Government is
 subject to restrictions as set forth in subparagraphs (a)
 and (c) of the Commercial Computer Software - Restricted
 Rights clause in FAR 52.227-19.
  
 Gaussian, Inc.
 340 Quinnipiac St., Bldg. 40, Wallingford CT 06492
  
  
 ---------------------------------------------------------------
 Warning -- This program may not be used in any manner that
 competes with the business of Gaussian, Inc. or will provide
 assistance to any competitor of Gaussian, Inc.  The licensee
 of this program is prohibited from giving any competitor of
 Gaussian, Inc. access to this program.  By using this program,
 the user acknowledges that Gaussian, Inc. is engaged in the
 business of creating and licensing software in the field of
 computational chemistry and represents and warrants to the
 licensee that it is not a competitor of Gaussian, Inc. and that
 it will not use this program in any manner prohibited above.
 ---------------------------------------------------------------
  

 Cite this work as:
 Gaussian 16, Revision C.02,
 M. J. Frisch, G. W. Trucks, H. B. Schlegel, G. E. Scuseria, 
 M. A. Robb, J. R. Cheeseman, G. Scalmani, V. Barone, 
 G. A. Petersson, H. Nakatsuji, X. Li, M. Caricato, A. V. Marenich, 
 J. Bloino, B. G. Janesko, R. Gomperts, B. Mennucci, H. P. Hratchian, 
 J. V. Ortiz, A. F. Izmaylov, J. L. Sonnenberg, D. Williams-Young, 
 F. Ding, F. Lipparini, F. Egidi, J. Goings, B. Peng, A. Petrone, 
 T. Henderson, D. Ranasinghe, V. G. Zakrzewski, J. Gao, N. Rega, 
 G. Zheng, W. Liang, M. Hada, M. Ehara, K. Toyota, R. Fukuda, 
 J. Hasegawa, M. Ishida, T. Nakajima, Y. Honda, O. Kitao, H. Nakai, 
 T. Vreven, K. Throssell, J. A. Montgomery, Jr., J. E. Peralta, 
 F. Ogliaro, M. J. Bearpark, J. J. Heyd, E. N. Brothers, K. N. Kudin, 
 V. N. Staroverov, T. A. Keith, R. Kobayashi, J. Normand, 
 K. Raghavachari, A. P. Rendell, J. C. Burant, S. S. Iyengar, 
 J. Tomasi, M. Cossi, J. M. Millam, M. Klene, C. Adamo, R. Cammi, 
 J. W. Ochterski, R. L. Martin, K. Morokuma, O. Farkas, 
 J. B. Foresman, and D. J. Fox, Gaussian, Inc., Wallingford CT, 2019.
 
 ******************************************
 Gaussian 16:  ES64L-G16RevC.02  7-Dec-2021
                16-Jan-2025 
 ******************************************
 %chk=A_Ru_Cis_straight_CO_DFT_B3LYP_def2SVP_smd_water_T_3MC_freezedScan_2_5.chk
 %Oldchk=A_Ru_Cis_straight_CO_DFT_B3LYP_def2SVP_smd_water_T_3MC_tweaked_geom.chk
 SetSPE:  set environment variable "OMP_PROC_BIND" = "true"
 SetSPE:  set environment variable "OMP_PLACES" = "{0},{1},{2},{3},{4},{5},{6},{7},{8},{9},{10},{11},{12},{13},{14},{15},{16},{17},{18},{19},{20},{21},{22},{23}"
 Copying data from "A_Ru_Cis_straight_CO_DFT_B3LYP_def2SVP_smd_water_T_3MC_tweaked_geom.chk" to current chk file "A_Ru_Cis_straight_CO_DFT_B3LYP_def2SVP_smd_water_T_3MC_freezedScan_2_5.chk"
 IOpt=  2 FromEx=T IUOpen= 4 IOptOp= 5 NList=   0 IFRang= 0 IUIn= 4 IUOut= 2.
 ----------------------------------------------------------------------
 # ub3lyp scrf=(smd,solvent=water) def2svp empiricaldispersion=gd3bj in
 t=ultrafine scf=xqc guess=read
 ----------------------------------------------------------------------
 1/38=1,172=1/1;
 2/12=2,17=6,18=5,40=1/2;
 3/5=43,7=101,11=2,25=1,30=1,70=32201,72=1,74=-5,75=-5,116=2,124=41/1,2,3;
 4/5=1/1;
 5/5=2,8=3,13=1,38=6,53=1/2,8;
 6/7=2,8=2,9=2,10=2,28=1/1;
 99/5=1,9=1/99;
 -----------------------------------------------------------------
 A_Ru_Cis_DFT_B3LYP_def2svp_smd_water_T_Opt_3MLCT_from_3MLCT_trans
 -----------------------------------------------------------------
 Symbolic Z-matrix:
 Charge =  0 Multiplicity = 3
 P                     2.41287  -0.09445  -0.14427 
 N                    -0.01475   1.67011  -0.06783 
 C                     2.18893   1.49713  -1.07451 
 H                     3.11357   2.08778  -1.10925 
 H                     1.95374   1.18983  -2.10723 
 O                    -0.14264  -1.08023  -2.14018 
 P                    -2.42832  -0.08809   0.05285 
 C                     1.05418   2.32638  -0.53428 
 C                     1.11454   3.72489  -0.50488 
 H                     1.99296   4.24178  -0.8947 
 C                     0.04121   4.42916   0.04221 
 H                     0.06246   5.52053   0.08467 
 C                    -1.05745   3.7268    0.53842 
 H                    -1.91242   4.24591   0.9748 
 C                    -1.05312   2.32834   0.45994 
 C                    -2.21296   1.51017   0.96894 
 H                    -3.13223   2.11112   0.97092 
 H                    -2.01158   1.21929   2.01409 
 Ru                   -0.01216  -1.01071  -0.05204 
 H                     0.69263  -1.43269  -2.46465 
 C                    -3.25187   0.41483  -1.59784 
 C                    -3.68924  -1.02651   1.14174 
 C                     3.67297  -1.03308  -1.23516 
 C                     3.23895   0.41126   1.50261 
 C                     2.31678   1.43515   2.19419 
 H                     2.31506   2.40048   1.67103 
 H                     1.27969   1.09286   2.28422 
 H                     2.70225   1.61289   3.21134 
 C                     3.38249  -0.83161   2.40377 
 H                     3.52116  -0.50317   3.44683 
 H                     2.5012   -1.48389   2.37483 
 H                     4.25606  -1.43458   2.13164 
 C                     4.61489   1.06906   1.3283 
 H                     4.96074   1.42544   2.3136 
 H                     5.36867   0.36483   0.95343 
 H                     4.57881   1.94031   0.65747 
 C                     4.74511  -0.11475  -1.84278 
 H                     5.32271   0.43253  -1.08959 
 H                     5.45173  -0.73695  -2.41789 
 H                     4.30851   0.61248  -2.54204 
 C                     4.33071  -2.15353  -0.41795 
 H                     4.87364  -2.82209  -1.10618 
 H                     5.05768  -1.76684   0.3071 
 H                     3.58406  -2.75868   0.11881 
 C                     2.90649  -1.68714  -2.39423 
 H                     2.18531  -2.43269  -2.03005 
 H                     2.39151  -0.94284  -3.01938 
 H                     3.62757  -2.21171  -3.04201 
 C                    -3.30587  -0.81202  -2.52674 
 H                    -3.62278  -0.48034  -3.53017 
 H                    -2.31853  -1.28297  -2.615 
 H                    -4.02958  -1.56193  -2.18718 
 C                    -4.65929   1.0031   -1.43317 
 H                    -5.00037   1.37308  -2.41529 
 H                    -5.38874   0.25561  -1.09525 
 H                    -4.67761   1.85483  -0.73672 
 C                    -2.36523   1.48708  -2.25899 
 H                    -2.38909   2.43881  -1.71058 
 H                    -1.32231   1.16439  -2.35618 
 H                    -2.75854   1.68174  -3.27055 
 C                    -2.92324  -1.65842   2.31252 
 H                    -2.18595  -2.39536   1.96655 
 H                    -2.40875  -0.90796   2.92696 
 H                    -3.646    -2.18045   2.96126 
 C                    -4.77689  -0.11411   1.73112 
 H                    -5.36247   0.41004   0.96803 
 H                    -5.47445  -0.73612   2.31738 
 H                    -4.3525    0.63299   2.41706 
 C                    -4.32708  -2.16304   0.3303 
 H                    -4.88209  -2.82163   1.01863 
 H                    -5.03944  -1.79445  -0.41883 
 H                    -3.56632  -2.77505  -0.17851 
 O                     0.02428  -3.49769  -0.30418 
 C                     0.05929  -1.04637   1.76685 
 H                    -0.03908  -3.49978  -1.27498 
 O                     0.12708  -1.08764   2.93618 
 
 Stoichiometry    C24H45NO3P2Ru(3)
 Framework group  C1[X(C24H45NO3P2Ru)]
 Deg. of freedom   222
 Full point group                 C1      NOp   1
 Largest Abelian subgroup         C1      NOp   1
 Largest concise Abelian subgroup C1      NOp   1
                         Standard orientation:                         
 ---------------------------------------------------------------------
 Center     Atomic      Atomic             Coordinates (Angstroms)
 Number     Number       Type             X           Y           Z
 ---------------------------------------------------------------------
      1         15           0        2.412727   -0.084837   -0.142230
      2          7           0       -0.015175    1.680042   -0.084725
      3          6           0        2.188547    1.496658   -1.089460
      4          1           0        3.113087    2.087057   -1.130495
      5          1           0        1.953425    1.178286   -2.118829
      6          8           0       -0.142581   -1.092334   -2.127529
      7         15           0       -2.428468   -0.077159    0.054726
      8          6           0        1.053654    2.331458   -0.558149
      9          6           0        1.113785    3.730212   -0.543711
     10          1           0        1.992124    4.243048   -0.939025
     11          6           0        0.040328    4.440121   -0.004212
     12          1           0        0.061400    5.531882    0.026565
     13          6           0       -1.058225    3.742928    0.499471
     14          1           0       -1.913290    4.266537    0.930256
     15          6           0       -1.053668    2.343711    0.435958
     16          6           0       -2.213387    1.530848    0.953659
     17          1           0       -3.132755    2.131633    0.949194
     18          1           0       -2.011973    1.251198    2.001865
     19         44           0       -0.012156   -1.000453   -0.040245
     20          1           0        0.692753   -1.448111   -2.448191
     21          6           0       -3.252063    0.407936   -1.601272
     22          6           0       -3.689255   -1.004078    1.153567
     23          6           0        3.673001   -1.034886   -1.223000
     24          6           0        3.238695    0.438600    1.499153
     25          6           0        2.316342    1.469682    2.179724
     26          1           0        2.314480    2.429354    1.646258
     27          1           0        1.279309    1.128205    2.273394
     28          1           0        2.701763    1.658355    3.194915
     29          6           0        3.382419   -0.794537    2.413561
     30          1           0        3.521018   -0.454927    3.453050
     31          1           0        2.501240   -1.447226    2.391592
     32          1           0        4.256092   -1.400236    2.147920
     33          6           0        4.614529    1.094716    1.317837
     34          1           0        4.960307    1.461681    2.299275
     35          1           0        5.368430    0.386647    0.950537
     36          1           0        4.578319    1.958742    0.637720
     37          6           0        4.745004   -0.122935   -1.840388
     38          1           0        5.322498    0.432474   -1.093086
     39          1           0        5.451733   -0.751134   -2.408798
     40          1           0        4.308297    0.596701   -2.547401
     41          6           0        4.330906   -2.146417   -0.393831
     42          1           0        4.873960   -2.822212   -1.074864
     43          1           0        5.057806   -1.751868    0.327045
     44          1           0        3.584352   -2.745906    0.149358
     45          6           0        2.906655   -1.701428   -2.375013
     46          1           0        2.185584   -2.443158   -2.002893
     47          1           0        2.391562   -0.963949   -3.008099
     48          1           0        3.627832   -2.232780   -3.017137
     49          6           0       -3.305844   -0.828798   -2.516985
     50          1           0       -3.622795   -0.507917   -3.523920
     51          1           0       -2.318434   -1.300503   -2.600187
     52          1           0       -4.029440   -1.575145   -2.169438
     53          6           0       -4.659583    0.997697   -1.442925
     54          1           0       -5.000703    1.357096   -2.428959
     55          1           0       -5.388921    0.253752   -1.097044
     56          1           0       -4.678059    1.856831   -0.755635
     57          6           0       -2.365593    1.473196   -2.273835
     58          1           0       -2.389616    2.430728   -1.735641
     59          1           0       -1.322613    1.149650   -2.367552
     60          1           0       -2.758913    1.656957   -3.287426
     61          6           0       -2.923169   -1.623300    2.331061
     62          1           0       -2.185757   -2.363780    1.993000
     63          1           0       -2.408820   -0.866230    2.937444
     64          1           0       -3.645856   -2.138482    2.985328
     65          6           0       -4.777065   -0.085601    1.733133
     66          1           0       -5.362716    0.430254    0.964468
     67          1           0       -5.474537   -0.701421    2.326005
     68          1           0       -4.352809    0.668857    2.411047
     69          6           0       -4.326894   -2.149331    0.354325
     70          1           0       -4.881803   -2.800614    1.049656
     71          1           0       -5.039300   -1.788893   -0.398721
     72          1           0       -3.566018   -2.766623   -0.147897
     73          8           0        0.024697   -3.489989   -0.265757
     74          6           0        0.059272   -1.016637    1.778920
     75          1           0       -0.038647   -3.502475   -1.236489
     76          8           0        0.127039   -1.045380    2.948629
 ---------------------------------------------------------------------
 Rotational constants (GHZ):           0.1846742           0.1023080           0.0921408
 Standard basis: def2SVP (5D, 7F)
 There are   719 symmetry adapted cartesian basis functions of A   symmetry.
 There are   684 symmetry adapted basis functions of A   symmetry.
   684 basis functions,  1154 primitive gaussians,   719 cartesian basis functions
   134 alpha electrons      132 beta electrons
       nuclear repulsion energy      4443.2217242563 Hartrees.
 NAtoms=   76 NActive=   76 NUniq=   76 SFac= 1.00D+00 NAtFMM=   60 NAOKFM=T Big=T
 Integral buffers will be    131072 words long.
 Raffenetti 2 integral format.
 Two-electron integral symmetry is turned on.
 Nuclear repulsion after empirical dispersion term =     4442.9989368146 Hartrees.
 ------------------------------------------------------------------------------
 Polarizable Continuum Model (PCM)
 =================================
 Model                : PCM.
 Atomic radii         : SMD-Coulomb.
 Polarization charges : Total charges.
 Charge compensation  : None.
 Solution method      : On-the-fly selection.
 Cavity type          : VdW (van der Waals Surface) (Alpha=1.000).
 Cavity algorithm     : GePol (No added spheres)
                        Default sphere list used, NSphG=   76.
                        Lebedev-Laikov grids with approx.  5.0 points / Ang**2.
                        Smoothing algorithm: York/Karplus (Gamma=1.0000).
                        Polarization charges: spherical gaussians, with
                                              point-specific exponents (IZeta= 3).
                        Self-potential: point-specific (ISelfS= 7).
                        Self-field    : sphere-specific E.n sum rule (ISelfD= 2).
 Solvent              : Water, Eps=  78.355300 Eps(inf)=   1.777849
 ------------------------------------------------------------------------------
 ------------------------------------------------------------------------------
 Atomic radii for non-electrostatic terms: SMD-CDS.
 ------------------------------------------------------------------------------
 Nuclear repulsion after PCM non-electrostatic terms =     4443.0179559203 Hartrees.
 One-electron integrals computed using PRISM.
   1 Symmetry operations used in ECPInt.
 ECPInt:  NShTT=   54615 NPrTT=  190596 LenC2=   47834 LenP2D=  112763.
 LDataN:  DoStor=T MaxTD1= 7 Len=  274
 NBasis=   684 RedAO= T EigKep=  4.90D-04  NBF=   684
 NBsUse=   684 1.00D-06 EigRej= -1.00D+00 NBFU=   684
 Defaulting to unpruned grid for atomic number  44.
 Initial guess from the checkpoint file:  "A_Ru_Cis_straight_CO_DFT_B3LYP_def2SVP_smd_water_T_3MC_freezedScan_2_5.chk"
 B after Tr=     0.000000   -0.000000    0.000000
         Rot=    0.999985    0.005524    0.000013   -0.000102 Ang=   0.63 deg.
 Initial guess <Sx>= 0.0000 <Sy>= 0.0000 <Sz>= 1.0000 <S**2>= 2.0205 S= 1.0068
 Requested convergence on RMS density matrix=1.00D-08 within  32 cycles.
 Requested convergence on MAX density matrix=1.00D-06.
 Requested convergence on             energy=1.00D-06.
 No special actions if energy rises.
 Defaulting to unpruned grid for atomic number  44.
 Defaulting to unpruned grid for atomic number  44.
 Defaulting to unpruned grid for atomic number  44.
 Defaulting to unpruned grid for atomic number  44.
 Defaulting to unpruned grid for atomic number  44.
 Defaulting to unpruned grid for atomic number  44.
 Defaulting to unpruned grid for atomic number  44.
 Defaulting to unpruned grid for atomic number  44.
 Defaulting to unpruned grid for atomic number  44.
 Defaulting to unpruned grid for atomic number  44.
 Defaulting to unpruned grid for atomic number  44.
 Defaulting to unpruned grid for atomic number  44.
 Defaulting to unpruned grid for atomic number  44.
 Defaulting to unpruned grid for atomic number  44.
 Defaulting to unpruned grid for atomic number  44.
 Defaulting to unpruned grid for atomic number  44.
 Defaulting to unpruned grid for atomic number  44.
 Defaulting to unpruned grid for atomic number  44.
 Defaulting to unpruned grid for atomic number  44.
 Defaulting to unpruned grid for atomic number  44.
 Defaulting to unpruned grid for atomic number  44.
 Defaulting to unpruned grid for atomic number  44.
 Defaulting to unpruned grid for atomic number  44.
 Defaulting to unpruned grid for atomic number  44.
 Inv3:  Mode=1 IEnd=    67773027.
 Iteration    1 A*A^-1 deviation from unit magnitude is 3.44D-15 for   2131.
 Iteration    1 A*A^-1 deviation from orthogonality  is 3.33D-15 for   4205   1632.
 Iteration    1 A^-1*A deviation from unit magnitude is 3.11D-15 for    224.
 Iteration    1 A^-1*A deviation from orthogonality  is 1.89D-15 for   3529   3029.
 Error on total polarization charges =  0.07750
 SCF Done:  E(UB3LYP) =  -1998.93429576     A.U. after   20 cycles
            NFock= 20  Conv=0.28D-08     -V/T= 2.0404
 <Sx>= 0.0000 <Sy>= 0.0000 <Sz>= 1.0000 <S**2>= 2.0226 S= 1.0075
 <L.S>=  0.00000000000    
 SMD-CDS (non-electrostatic) energy       (kcal/mol) =      11.93
 (included in total energy above)
 Annihilation of the first spin contaminant:
 S**2 before annihilation     2.0226,   after     2.0003
 QCSCF skips out because SCF is already converged.

 **********************************************************************

            Population analysis using the SCF Density.

 **********************************************************************

 Orbital symmetries:
 Alpha Orbitals:
       Occupied  (A) (A) (A) (A) (A) (A) (A) (A) (A) (A) (A) (A)
                 (A) (A) (A) (A) (A) (A) (A) (A) (A) (A) (A) (A)
                 (A) (A) (A) (A) (A) (A) (A) (A) (A) (A) (A) (A)
                 (A) (A) (A) (A) (A) (A) (A) (A) (A) (A) (A) (A)
                 (A) (A) (A) (A) (A) (A) (A) (A) (A) (A) (A) (A)
                 (A) (A) (A) (A) (A) (A) (A) (A) (A) (A) (A) (A)
                 (A) (A) (A) (A) (A) (A) (A) (A) (A) (A) (A) (A)
                 (A) (A) (A) (A) (A) (A) (A) (A) (A) (A) (A) (A)
                 (A) (A) (A) (A) (A) (A) (A) (A) (A) (A) (A) (A)
                 (A) (A) (A) (A) (A) (A) (A) (A) (A) (A) (A) (A)
                 (A) (A) (A) (A) (A) (A) (A) (A) (A) (A) (A) (A)
                 (A) (A)
       Virtual   (A) (A) (A) (A) (A) (A) (A) (A) (A) (A) (A) (A)
                 (A) (A) (A) (A) (A) (A) (A) (A) (A) (A) (A) (A)
                 (A) (A) (A) (A) (A) (A) (A) (A) (A) (A) (A) (A)
                 (A) (A) (A) (A) (A) (A) (A) (A) (A) (A) (A) (A)
                 (A) (A) (A) (A) (A) (A) (A) (A) (A) (A) (A) (A)
                 (A) (A) (A) (A) (A) (A) (A) (A) (A) (A) (A) (A)
                 (A) (A) (A) (A) (A) (A) (A) (A) (A) (A) (A) (A)
                 (A) (A) (A) (A) (A) (A) (A) (A) (A) (A) (A) (A)
                 (A) (A) (A) (A) (A) (A) (A) (A) (A) (A) (A) (A)
                 (A) (A) (A) (A) (A) (A) (A) (A) (A) (A) (A) (A)
                 (A) (A) (A) (A) (A) (A) (A) (A) (A) (A) (A) (A)
                 (A) (A) (A) (A) (A) (A) (A) (A) (A) (A) (A) (A)
                 (A) (A) (A) (A) (A) (A) (A) (A) (A) (A) (A) (A)
                 (A) (A) (A) (A) (A) (A) (A) (A) (A) (A) (A) (A)
                 (A) (A) (A) (A) (A) (A) (A) (A) (A) (A) (A) (A)
                 (A) (A) (A) (A) (A) (A) (A) (A) (A) (A) (A) (A)
                 (A) (A) (A) (A) (A) (A) (A) (A) (A) (A) (A) (A)
                 (A) (A) (A) (A) (A) (A) (A) (A) (A) (A) (A) (A)
                 (A) (A) (A) (A) (A) (A) (A) (A) (A) (A) (A) (A)
                 (A) (A) (A) (A) (A) (A) (A) (A) (A) (A) (A) (A)
                 (A) (A) (A) (A) (A) (A) (A) (A) (A) (A) (A) (A)
                 (A) (A) (A) (A) (A) (A) (A) (A) (A) (A) (A) (A)
                 (A) (A) (A) (A) (A) (A) (A) (A) (A) (A) (A) (A)
                 (A) (A) (A) (A) (A) (A) (A) (A) (A) (A) (A) (A)
                 (A) (A) (A) (A) (A) (A) (A) (A) (A) (A) (A) (A)
                 (A) (A) (A) (A) (A) (A) (A) (A) (A) (A) (A) (A)
                 (A) (A) (A) (A) (A) (A) (A) (A) (A) (A) (A) (A)
                 (A) (A) (A) (A) (A) (A) (A) (A) (A) (A) (A) (A)
                 (A) (A) (A) (A) (A) (A) (A) (A) (A) (A) (A) (A)
                 (A) (A) (A) (A) (A) (A) (A) (A) (A) (A) (A) (A)
                 (A) (A) (A) (A) (A) (A) (A) (A) (A) (A) (A) (A)
                 (A) (A) (A) (A) (A) (A) (A) (A) (A) (A) (A) (A)
                 (A) (A) (A) (A) (A) (A) (A) (A) (A) (A) (A) (A)
                 (A) (A) (A) (A) (A) (A) (A) (A) (A) (A) (A) (A)
                 (A) (A) (A) (A) (A) (A) (A) (A) (A) (A) (A) (A)
                 (A) (A) (A) (A) (A) (A) (A) (A) (A) (A) (A) (A)
                 (A) (A) (A) (A) (A) (A) (A) (A) (A) (A) (A) (A)
                 (A) (A) (A) (A) (A) (A) (A) (A) (A) (A) (A) (A)
                 (A) (A) (A) (A) (A) (A) (A) (A) (A) (A) (A) (A)
                 (A) (A) (A) (A) (A) (A) (A) (A) (A) (A) (A) (A)
                 (A) (A) (A) (A) (A) (A) (A) (A) (A) (A) (A) (A)
                 (A) (A) (A) (A) (A) (A) (A) (A) (A) (A) (A) (A)
                 (A) (A) (A) (A) (A) (A) (A) (A) (A) (A) (A) (A)
                 (A) (A) (A) (A) (A) (A) (A) (A) (A) (A) (A) (A)
                 (A) (A) (A) (A) (A) (A) (A) (A) (A) (A) (A) (A)
                 (A) (A) (A) (A) (A) (A) (A) (A) (A) (A)
 Beta  Orbitals:
       Occupied  (A) (A) (A) (A) (A) (A) (A) (A) (A) (A) (A) (A)
                 (A) (A) (A) (A) (A) (A) (A) (A) (A) (A) (A) (A)
                 (A) (A) (A) (A) (A) (A) (A) (A) (A) (A) (A) (A)
                 (A) (A) (A) (A) (A) (A) (A) (A) (A) (A) (A) (A)
                 (A) (A) (A) (A) (A) (A) (A) (A) (A) (A) (A) (A)
                 (A) (A) (A) (A) (A) (A) (A) (A) (A) (A) (A) (A)
                 (A) (A) (A) (A) (A) (A) (A) (A) (A) (A) (A) (A)
                 (A) (A) (A) (A) (A) (A) (A) (A) (A) (A) (A) (A)
                 (A) (A) (A) (A) (A) (A) (A) (A) (A) (A) (A) (A)
                 (A) (A) (A) (A) (A) (A) (A) (A) (A) (A) (A) (A)
                 (A) (A) (A) (A) (A) (A) (A) (A) (A) (A) (A) (A)
       Virtual   (A) (A) (A) (A) (A) (A) (A) (A) (A) (A) (A) (A)
                 (A) (A) (A) (A) (A) (A) (A) (A) (A) (A) (A) (A)
                 (A) (A) (A) (A) (A) (A) (A) (A) (A) (A) (A) (A)
                 (A) (A) (A) (A) (A) (A) (A) (A) (A) (A) (A) (A)
                 (A) (A) (A) (A) (A) (A) (A) (A) (A) (A) (A) (A)
                 (A) (A) (A) (A) (A) (A) (A) (A) (A) (A) (A) (A)
                 (A) (A) (A) (A) (A) (A) (A) (A) (A) (A) (A) (A)
                 (A) (A) (A) (A) (A) (A) (A) (A) (A) (A) (A) (A)
                 (A) (A) (A) (A) (A) (A) (A) (A) (A) (A) (A) (A)
                 (A) (A) (A) (A) (A) (A) (A) (A) (A) (A) (A) (A)
                 (A) (A) (A) (A) (A) (A) (A) (A) (A) (A) (A) (A)
                 (A) (A) (A) (A) (A) (A) (A) (A) (A) (A) (A) (A)
                 (A) (A) (A) (A) (A) (A) (A) (A) (A) (A) (A) (A)
                 (A) (A) (A) (A) (A) (A) (A) (A) (A) (A) (A) (A)
                 (A) (A) (A) (A) (A) (A) (A) (A) (A) (A) (A) (A)
                 (A) (A) (A) (A) (A) (A) (A) (A) (A) (A) (A) (A)
                 (A) (A) (A) (A) (A) (A) (A) (A) (A) (A) (A) (A)
                 (A) (A) (A) (A) (A) (A) (A) (A) (A) (A) (A) (A)
                 (A) (A) (A) (A) (A) (A) (A) (A) (A) (A) (A) (A)
                 (A) (A) (A) (A) (A) (A) (A) (A) (A) (A) (A) (A)
                 (A) (A) (A) (A) (A) (A) (A) (A) (A) (A) (A) (A)
                 (A) (A) (A) (A) (A) (A) (A) (A) (A) (A) (A) (A)
                 (A) (A) (A) (A) (A) (A) (A) (A) (A) (A) (A) (A)
                 (A) (A) (A) (A) (A) (A) (A) (A) (A) (A) (A) (A)
                 (A) (A) (A) (A) (A) (A) (A) (A) (A) (A) (A) (A)
                 (A) (A) (A) (A) (A) (A) (A) (A) (A) (A) (A) (A)
                 (A) (A) (A) (A) (A) (A) (A) (A) (A) (A) (A) (A)
                 (A) (A) (A) (A) (A) (A) (A) (A) (A) (A) (A) (A)
                 (A) (A) (A) (A) (A) (A) (A) (A) (A) (A) (A) (A)
                 (A) (A) (A) (A) (A) (A) (A) (A) (A) (A) (A) (A)
                 (A) (A) (A) (A) (A) (A) (A) (A) (A) (A) (A) (A)
                 (A) (A) (A) (A) (A) (A) (A) (A) (A) (A) (A) (A)
                 (A) (A) (A) (A) (A) (A) (A) (A) (A) (A) (A) (A)
                 (A) (A) (A) (A) (A) (A) (A) (A) (A) (A) (A) (A)
                 (A) (A) (A) (A) (A) (A) (A) (A) (A) (A) (A) (A)
                 (A) (A) (A) (A) (A) (A) (A) (A) (A) (A) (A) (A)
                 (A) (A) (A) (A) (A) (A) (A) (A) (A) (A) (A) (A)
                 (A) (A) (A) (A) (A) (A) (A) (A) (A) (A) (A) (A)
                 (A) (A) (A) (A) (A) (A) (A) (A) (A) (A) (A) (A)
                 (A) (A) (A) (A) (A) (A) (A) (A) (A) (A) (A) (A)
                 (A) (A) (A) (A) (A) (A) (A) (A) (A) (A) (A) (A)
                 (A) (A) (A) (A) (A) (A) (A) (A) (A) (A) (A) (A)
                 (A) (A) (A) (A) (A) (A) (A) (A) (A) (A) (A) (A)
                 (A) (A) (A) (A) (A) (A) (A) (A) (A) (A) (A) (A)
                 (A) (A) (A) (A) (A) (A) (A) (A) (A) (A) (A) (A)
                 (A) (A) (A) (A) (A) (A) (A) (A) (A) (A) (A) (A)
 The electronic state is 3-A.
 Alpha  occ. eigenvalues --  -77.08239 -77.07949 -19.17535 -19.06497 -19.05926
 Alpha  occ. eigenvalues --  -14.33870 -10.26516 -10.23953 -10.23918 -10.20852
 Alpha  occ. eigenvalues --  -10.20768 -10.20757 -10.20585 -10.20438 -10.19612
 Alpha  occ. eigenvalues --  -10.19608 -10.19482 -10.19438 -10.17600 -10.17442
 Alpha  occ. eigenvalues --  -10.17431 -10.17375 -10.17348 -10.17300 -10.17259
 Alpha  occ. eigenvalues --  -10.17232 -10.17105 -10.17094 -10.16949 -10.16456
 Alpha  occ. eigenvalues --   -6.57413  -6.57131  -4.74018  -4.73961  -4.73749
 Alpha  occ. eigenvalues --   -4.73738  -4.73679  -4.73466  -3.05494  -1.90153
 Alpha  occ. eigenvalues --   -1.90002  -1.88210  -1.07776  -0.95401  -0.88344
 Alpha  occ. eigenvalues --   -0.86046  -0.82308  -0.81756  -0.79874  -0.79834
 Alpha  occ. eigenvalues --   -0.79584  -0.79333  -0.73635  -0.69993  -0.67984
 Alpha  occ. eigenvalues --   -0.67862  -0.67785  -0.67505  -0.67017  -0.66947
 Alpha  occ. eigenvalues --   -0.66727  -0.66617  -0.63787  -0.62911  -0.59654
 Alpha  occ. eigenvalues --   -0.59390  -0.54372  -0.54077  -0.53982  -0.51554
 Alpha  occ. eigenvalues --   -0.51231  -0.50179  -0.49464  -0.47075  -0.46877
 Alpha  occ. eigenvalues --   -0.45665  -0.45355  -0.44923  -0.44648  -0.44587
 Alpha  occ. eigenvalues --   -0.44230  -0.43923  -0.43774  -0.43141  -0.43037
 Alpha  occ. eigenvalues --   -0.42752  -0.42529  -0.42194  -0.42074  -0.41546
 Alpha  occ. eigenvalues --   -0.41376  -0.41147  -0.40384  -0.39984  -0.39081
 Alpha  occ. eigenvalues --   -0.38845  -0.38640  -0.37742  -0.37529  -0.37389
 Alpha  occ. eigenvalues --   -0.37235  -0.37103  -0.37083  -0.36885  -0.36678
 Alpha  occ. eigenvalues --   -0.36229  -0.35810  -0.35498  -0.35442  -0.34802
 Alpha  occ. eigenvalues --   -0.34448  -0.34121  -0.33662  -0.32997  -0.32686
 Alpha  occ. eigenvalues --   -0.32612  -0.32287  -0.32124  -0.31538  -0.31117
 Alpha  occ. eigenvalues --   -0.30889  -0.29988  -0.29367  -0.29147  -0.28819
 Alpha  occ. eigenvalues --   -0.28518  -0.27839  -0.25921  -0.25445  -0.25150
 Alpha  occ. eigenvalues --   -0.24258  -0.21878  -0.20501  -0.17226
 Alpha virt. eigenvalues --   -0.03928  -0.02991  -0.02340   0.00593   0.01455
 Alpha virt. eigenvalues --    0.04428   0.04631   0.05414   0.06089   0.06241
 Alpha virt. eigenvalues --    0.07352   0.07544   0.07928   0.08232   0.08493
 Alpha virt. eigenvalues --    0.08676   0.09196   0.09703   0.10082   0.10394
 Alpha virt. eigenvalues --    0.10623   0.10947   0.11362   0.11879   0.12307
 Alpha virt. eigenvalues --    0.12330   0.12719   0.13391   0.13565   0.13610
 Alpha virt. eigenvalues --    0.13901   0.14036   0.14088   0.14868   0.14916
 Alpha virt. eigenvalues --    0.15255   0.15464   0.16064   0.16262   0.16621
 Alpha virt. eigenvalues --    0.16827   0.17016   0.17521   0.17709   0.17937
 Alpha virt. eigenvalues --    0.17997   0.18504   0.18785   0.19200   0.19810
 Alpha virt. eigenvalues --    0.20148   0.20226   0.20672   0.20790   0.21048
 Alpha virt. eigenvalues --    0.21160   0.21318   0.21622   0.21785   0.22167
 Alpha virt. eigenvalues --    0.22716   0.23169   0.23444   0.24329   0.24605
 Alpha virt. eigenvalues --    0.24830   0.25277   0.25681   0.25909   0.26186
 Alpha virt. eigenvalues --    0.26691   0.27508   0.27966   0.28737   0.29859
 Alpha virt. eigenvalues --    0.30835   0.31234   0.31584   0.32382   0.34500
 Alpha virt. eigenvalues --    0.35584   0.35841   0.36472   0.37868   0.38730
 Alpha virt. eigenvalues --    0.39531   0.39845   0.40546   0.40671   0.40889
 Alpha virt. eigenvalues --    0.41264   0.41696   0.42445   0.43048   0.43177
 Alpha virt. eigenvalues --    0.43600   0.44108   0.44879   0.45545   0.45761
 Alpha virt. eigenvalues --    0.46432   0.46808   0.48153   0.48434   0.49006
 Alpha virt. eigenvalues --    0.49182   0.50088   0.51732   0.52249   0.52481
 Alpha virt. eigenvalues --    0.52715   0.53421   0.53476   0.54037   0.54142
 Alpha virt. eigenvalues --    0.54541   0.55550   0.56135   0.56601   0.57477
 Alpha virt. eigenvalues --    0.58137   0.58232   0.58426   0.59045   0.59504
 Alpha virt. eigenvalues --    0.59851   0.60068   0.60553   0.61208   0.61381
 Alpha virt. eigenvalues --    0.62045   0.62373   0.62510   0.62981   0.63284
 Alpha virt. eigenvalues --    0.63477   0.63713   0.64535   0.64609   0.64887
 Alpha virt. eigenvalues --    0.65250   0.65357   0.65745   0.65883   0.66011
 Alpha virt. eigenvalues --    0.66220   0.66410   0.66766   0.67154   0.67198
 Alpha virt. eigenvalues --    0.67521   0.67878   0.68136   0.68447   0.68569
 Alpha virt. eigenvalues --    0.68834   0.68856   0.69143   0.69343   0.69396
 Alpha virt. eigenvalues --    0.69801   0.70559   0.70582   0.70838   0.71134
 Alpha virt. eigenvalues --    0.71271   0.71342   0.71477   0.72274   0.72573
 Alpha virt. eigenvalues --    0.72637   0.72917   0.73264   0.73384   0.73486
 Alpha virt. eigenvalues --    0.73615   0.73903   0.74428   0.74789   0.75031
 Alpha virt. eigenvalues --    0.75303   0.75612   0.76024   0.76262   0.76650
 Alpha virt. eigenvalues --    0.76956   0.77550   0.78112   0.78212   0.78630
 Alpha virt. eigenvalues --    0.78676   0.79316   0.79495   0.80436   0.80600
 Alpha virt. eigenvalues --    0.81031   0.81268   0.81675   0.82046   0.82203
 Alpha virt. eigenvalues --    0.82667   0.83239   0.83542   0.84384   0.84866
 Alpha virt. eigenvalues --    0.85511   0.86012   0.86650   0.87344   0.87846
 Alpha virt. eigenvalues --    0.88651   0.89268   0.89512   0.90040   0.91145
 Alpha virt. eigenvalues --    0.91515   0.91883   0.93233   0.94483   0.95103
 Alpha virt. eigenvalues --    0.95909   0.96004   0.97594   0.99322   1.00075
 Alpha virt. eigenvalues --    1.01836   1.02186   1.02882   1.03247   1.03662
 Alpha virt. eigenvalues --    1.04653   1.05317   1.06309   1.06428   1.07570
 Alpha virt. eigenvalues --    1.07997   1.08395   1.09390   1.10418   1.11521
 Alpha virt. eigenvalues --    1.12268   1.12837   1.12918   1.14801   1.15638
 Alpha virt. eigenvalues --    1.16173   1.16702   1.17051   1.18596   1.18949
 Alpha virt. eigenvalues --    1.19036   1.20228   1.20476   1.21075   1.22085
 Alpha virt. eigenvalues --    1.22539   1.23168   1.24136   1.24640   1.24734
 Alpha virt. eigenvalues --    1.25288   1.25948   1.27294   1.27928   1.28526
 Alpha virt. eigenvalues --    1.29050   1.29458   1.30106   1.30604   1.31344
 Alpha virt. eigenvalues --    1.32027   1.33163   1.34493   1.36279   1.37444
 Alpha virt. eigenvalues --    1.37699   1.39336   1.41840   1.43697   1.44479
 Alpha virt. eigenvalues --    1.46192   1.48184   1.49180   1.49519   1.49994
 Alpha virt. eigenvalues --    1.51360   1.51878   1.52478   1.53201   1.53360
 Alpha virt. eigenvalues --    1.53792   1.54214   1.54595   1.54962   1.55566
 Alpha virt. eigenvalues --    1.56119   1.56443   1.56728   1.57167   1.57813
 Alpha virt. eigenvalues --    1.58256   1.58559   1.58659   1.59041   1.59422
 Alpha virt. eigenvalues --    1.59549   1.60176   1.60960   1.61514   1.61939
 Alpha virt. eigenvalues --    1.62620   1.62894   1.63590   1.63983   1.64662
 Alpha virt. eigenvalues --    1.65391   1.65748   1.66203   1.66482   1.66994
 Alpha virt. eigenvalues --    1.67909   1.68600   1.69395   1.69700   1.70887
 Alpha virt. eigenvalues --    1.71992   1.72704   1.73558   1.74353   1.75000
 Alpha virt. eigenvalues --    1.76308   1.76772   1.76982   1.77326   1.77476
 Alpha virt. eigenvalues --    1.78382   1.78753   1.79014   1.79055   1.79264
 Alpha virt. eigenvalues --    1.79577   1.80158   1.80246   1.81110   1.81339
 Alpha virt. eigenvalues --    1.81579   1.82391   1.82660   1.82926   1.83524
 Alpha virt. eigenvalues --    1.83772   1.84387   1.84517   1.84672   1.85281
 Alpha virt. eigenvalues --    1.85502   1.85765   1.86111   1.86366   1.86992
 Alpha virt. eigenvalues --    1.87328   1.87783   1.88178   1.88270   1.88918
 Alpha virt. eigenvalues --    1.89266   1.90429   1.90616   1.91138   1.91564
 Alpha virt. eigenvalues --    1.92544   1.92729   1.93101   1.93406   1.93643
 Alpha virt. eigenvalues --    1.93883   1.94026   1.94337   1.94358   1.94740
 Alpha virt. eigenvalues --    1.95388   1.95795   1.95935   1.96096   1.96961
 Alpha virt. eigenvalues --    1.97410   1.98170   1.98551   1.98942   1.99263
 Alpha virt. eigenvalues --    1.99850   2.00644   2.00858   2.01096   2.01569
 Alpha virt. eigenvalues --    2.02087   2.02423   2.02561   2.03738   2.03864
 Alpha virt. eigenvalues --    2.04399   2.05673   2.07200   2.08158   2.09805
 Alpha virt. eigenvalues --    2.10792   2.11984   2.15017   2.15808   2.16121
 Alpha virt. eigenvalues --    2.16660   2.16842   2.17616   2.17828   2.18335
 Alpha virt. eigenvalues --    2.18566   2.18924   2.19139   2.19652   2.20032
 Alpha virt. eigenvalues --    2.20514   2.20854   2.21469   2.22248   2.22659
 Alpha virt. eigenvalues --    2.22726   2.23275   2.24103   2.24259   2.24900
 Alpha virt. eigenvalues --    2.25147   2.27266   2.28160   2.29040   2.29559
 Alpha virt. eigenvalues --    2.30208   2.35078   2.38019   2.38473   2.38909
 Alpha virt. eigenvalues --    2.39267   2.39987   2.40580   2.40885   2.41312
 Alpha virt. eigenvalues --    2.42109   2.42202   2.42562   2.42962   2.43238
 Alpha virt. eigenvalues --    2.44395   2.44867   2.45900   2.47032   2.47149
 Alpha virt. eigenvalues --    2.47668   2.48951   2.50244   2.51303   2.52227
 Alpha virt. eigenvalues --    2.55260   2.55546   2.55953   2.56265   2.56414
 Alpha virt. eigenvalues --    2.56485   2.56678   2.57511   2.58321   2.61336
 Alpha virt. eigenvalues --    2.62121   2.62438   2.62789   2.62963   2.63486
 Alpha virt. eigenvalues --    2.63713   2.63849   2.64038   2.64279   2.64885
 Alpha virt. eigenvalues --    2.64988   2.65287   2.65929   2.65963   2.67635
 Alpha virt. eigenvalues --    2.69235   2.72447   2.72639   2.72940   2.73227
 Alpha virt. eigenvalues --    2.73766   2.74170   2.74764   2.75807   2.80525
 Alpha virt. eigenvalues --    2.81570   2.83648   2.84484   2.86338   2.87124
 Alpha virt. eigenvalues --    2.87549   2.87743   2.88498   2.88952   2.89211
 Alpha virt. eigenvalues --    2.89308   2.89786   2.90899   2.91340   2.92896
 Alpha virt. eigenvalues --    2.93059   2.93621   2.94398   2.94925   2.95732
 Alpha virt. eigenvalues --    2.95853   2.96276   2.96494   2.96977   2.97156
 Alpha virt. eigenvalues --    2.97591   2.98229   2.98971   2.99600   2.99886
 Alpha virt. eigenvalues --    3.02121   3.02350   3.03959   3.04050   3.05055
 Alpha virt. eigenvalues --    3.05772   3.06710   3.07007   3.07862   3.08718
 Alpha virt. eigenvalues --    3.08926   3.09707   3.09969   3.11209   3.12057
 Alpha virt. eigenvalues --    3.12613   3.14397   3.19031   3.20204   3.36432
 Alpha virt. eigenvalues --    3.62035   3.73454   3.79943   3.87218  45.26485
  Beta  occ. eigenvalues --  -77.08201 -77.07909 -19.17664 -19.06491 -19.05424
  Beta  occ. eigenvalues --  -14.33580 -10.26681 -10.23964 -10.23929 -10.20822
  Beta  occ. eigenvalues --  -10.20775 -10.20748 -10.20561 -10.20426 -10.19599
  Beta  occ. eigenvalues --  -10.19594 -10.19481 -10.19435 -10.17600 -10.17438
  Beta  occ. eigenvalues --  -10.17431 -10.17367 -10.17348 -10.17293 -10.17253
  Beta  occ. eigenvalues --  -10.17233 -10.17103 -10.17094 -10.16951 -10.16456
  Beta  occ. eigenvalues --   -6.57366  -6.57084  -4.73985  -4.73933  -4.73706
  Beta  occ. eigenvalues --   -4.73654  -4.73650  -4.73366  -2.99489  -1.85451
  Beta  occ. eigenvalues --   -1.82214  -1.80730  -1.08008  -0.95157  -0.88304
  Beta  occ. eigenvalues --   -0.84950  -0.82257  -0.81699  -0.79834  -0.79768
  Beta  occ. eigenvalues --   -0.79560  -0.79311  -0.73580  -0.69945  -0.67968
  Beta  occ. eigenvalues --   -0.67855  -0.67768  -0.67502  -0.67013  -0.66936
  Beta  occ. eigenvalues --   -0.66715  -0.66615  -0.63656  -0.62797  -0.59546
  Beta  occ. eigenvalues --   -0.59272  -0.54388  -0.54234  -0.53982  -0.51496
  Beta  occ. eigenvalues --   -0.51154  -0.50085  -0.49416  -0.47027  -0.46862
  Beta  occ. eigenvalues --   -0.45583  -0.45309  -0.44830  -0.44579  -0.44531
  Beta  occ. eigenvalues --   -0.44224  -0.43894  -0.43750  -0.43216  -0.43034
  Beta  occ. eigenvalues --   -0.42723  -0.42563  -0.42220  -0.42065  -0.41597
  Beta  occ. eigenvalues --   -0.41386  -0.41155  -0.40112  -0.39941  -0.39056
  Beta  occ. eigenvalues --   -0.38815  -0.38617  -0.37727  -0.37426  -0.37265
  Beta  occ. eigenvalues --   -0.37215  -0.37090  -0.36932  -0.36688  -0.36643
  Beta  occ. eigenvalues --   -0.36213  -0.35787  -0.35492  -0.35435  -0.34688
  Beta  occ. eigenvalues --   -0.34400  -0.33962  -0.33577  -0.32984  -0.32671
  Beta  occ. eigenvalues --   -0.32383  -0.32240  -0.32049  -0.31422  -0.30262
  Beta  occ. eigenvalues --   -0.29459  -0.29170  -0.28862  -0.27877  -0.27434
  Beta  occ. eigenvalues --   -0.27287  -0.25888  -0.25231  -0.23736  -0.23374
  Beta  occ. eigenvalues --   -0.22384  -0.20332
  Beta virt. eigenvalues --   -0.09004  -0.05329  -0.03704  -0.02347  -0.00553
  Beta virt. eigenvalues --    0.01161   0.01786   0.04498   0.05000   0.05789
  Beta virt. eigenvalues --    0.06256   0.06623   0.07397   0.07693   0.08025
  Beta virt. eigenvalues --    0.08281   0.08608   0.08731   0.09295   0.09737
  Beta virt. eigenvalues --    0.10115   0.10448   0.10658   0.11003   0.11390
  Beta virt. eigenvalues --    0.11895   0.12350   0.12376   0.12838   0.13459
  Beta virt. eigenvalues --    0.13641   0.13679   0.13955   0.14064   0.14136
  Beta virt. eigenvalues --    0.14912   0.14943   0.15280   0.15510   0.16144
  Beta virt. eigenvalues --    0.16328   0.16666   0.16932   0.17092   0.17547
  Beta virt. eigenvalues --    0.17734   0.17971   0.18073   0.18547   0.18798
  Beta virt. eigenvalues --    0.19280   0.19893   0.20198   0.20287   0.20740
  Beta virt. eigenvalues --    0.20872   0.21139   0.21229   0.21352   0.21669
  Beta virt. eigenvalues --    0.21836   0.22276   0.22758   0.23211   0.23645
  Beta virt. eigenvalues --    0.24384   0.24672   0.24911   0.25347   0.25821
  Beta virt. eigenvalues --    0.26120   0.26248   0.26856   0.27570   0.28105
  Beta virt. eigenvalues --    0.28938   0.30127   0.30936   0.31358   0.31690
  Beta virt. eigenvalues --    0.32782   0.34639   0.35855   0.36132   0.36779
  Beta virt. eigenvalues --    0.38095   0.39144   0.39596   0.39873   0.40663
  Beta virt. eigenvalues --    0.40721   0.41005   0.41389   0.41824   0.42636
  Beta virt. eigenvalues --    0.43154   0.43271   0.43734   0.44202   0.44964
  Beta virt. eigenvalues --    0.45649   0.45823   0.46517   0.46940   0.48314
  Beta virt. eigenvalues --    0.48785   0.49122   0.49433   0.50214   0.51879
  Beta virt. eigenvalues --    0.52471   0.52585   0.52920   0.53488   0.53532
  Beta virt. eigenvalues --    0.54170   0.54368   0.54622   0.55644   0.56197
  Beta virt. eigenvalues --    0.56707   0.57558   0.58286   0.58334   0.58570
  Beta virt. eigenvalues --    0.59132   0.59568   0.59987   0.60171   0.60599
  Beta virt. eigenvalues --    0.61287   0.61422   0.62148   0.62580   0.62641
  Beta virt. eigenvalues --    0.63057   0.63321   0.63552   0.63770   0.64586
  Beta virt. eigenvalues --    0.64665   0.64917   0.65298   0.65402   0.65801
  Beta virt. eigenvalues --    0.65928   0.66055   0.66271   0.66465   0.66800
  Beta virt. eigenvalues --    0.67215   0.67277   0.67577   0.67918   0.68219
  Beta virt. eigenvalues --    0.68496   0.68617   0.68881   0.68922   0.69247
  Beta virt. eigenvalues --    0.69385   0.69480   0.69868   0.70593   0.70618
  Beta virt. eigenvalues --    0.70869   0.71195   0.71388   0.71409   0.71508
  Beta virt. eigenvalues --    0.72309   0.72639   0.72705   0.72987   0.73301
  Beta virt. eigenvalues --    0.73424   0.73517   0.73670   0.73983   0.74498
  Beta virt. eigenvalues --    0.74891   0.75147   0.75360   0.75705   0.76089
  Beta virt. eigenvalues --    0.76347   0.76728   0.77053   0.77619   0.78164
  Beta virt. eigenvalues --    0.78293   0.78689   0.78754   0.79393   0.79601
  Beta virt. eigenvalues --    0.80498   0.80659   0.81100   0.81460   0.81714
  Beta virt. eigenvalues --    0.82169   0.82313   0.82729   0.83276   0.83670
  Beta virt. eigenvalues --    0.84431   0.84970   0.85586   0.86148   0.86795
  Beta virt. eigenvalues --    0.87464   0.88005   0.88732   0.89452   0.89675
  Beta virt. eigenvalues --    0.90181   0.91279   0.91680   0.91980   0.93364
  Beta virt. eigenvalues --    0.94682   0.95209   0.96081   0.96154   0.97773
  Beta virt. eigenvalues --    0.99466   1.00451   1.01987   1.02409   1.02968
  Beta virt. eigenvalues --    1.03422   1.03882   1.04819   1.05382   1.06392
  Beta virt. eigenvalues --    1.06721   1.07634   1.08195   1.08572   1.09550
  Beta virt. eigenvalues --    1.10582   1.11610   1.12392   1.12941   1.13073
  Beta virt. eigenvalues --    1.14975   1.15818   1.16297   1.16733   1.17098
  Beta virt. eigenvalues --    1.18719   1.19081   1.19175   1.20333   1.20632
  Beta virt. eigenvalues --    1.21129   1.22228   1.22692   1.23251   1.24203
  Beta virt. eigenvalues --    1.24722   1.24779   1.25361   1.25999   1.27341
  Beta virt. eigenvalues --    1.28113   1.28706   1.29230   1.29600   1.30363
  Beta virt. eigenvalues --    1.30715   1.31382   1.32108   1.33254   1.34602
  Beta virt. eigenvalues --    1.36519   1.37523   1.37812   1.39476   1.41989
  Beta virt. eigenvalues --    1.43785   1.44613   1.46380   1.48277   1.49290
  Beta virt. eigenvalues --    1.49608   1.50054   1.51488   1.51976   1.52576
  Beta virt. eigenvalues --    1.53268   1.53437   1.53862   1.54245   1.54680
  Beta virt. eigenvalues --    1.54993   1.55623   1.56175   1.56493   1.56761
  Beta virt. eigenvalues --    1.57222   1.57874   1.58336   1.58609   1.58702
  Beta virt. eigenvalues --    1.59075   1.59444   1.59593   1.60228   1.61016
  Beta virt. eigenvalues --    1.61568   1.62020   1.62815   1.63112   1.63699
  Beta virt. eigenvalues --    1.64207   1.64779   1.65475   1.65820   1.66361
  Beta virt. eigenvalues --    1.66534   1.67502   1.68002   1.68852   1.69963
  Beta virt. eigenvalues --    1.70016   1.70917   1.72158   1.72755   1.73713
  Beta virt. eigenvalues --    1.74388   1.75065   1.76378   1.76876   1.77050
  Beta virt. eigenvalues --    1.77384   1.77524   1.78450   1.78808   1.79044
  Beta virt. eigenvalues --    1.79132   1.79417   1.79646   1.80260   1.80497
  Beta virt. eigenvalues --    1.81235   1.81405   1.81655   1.82452   1.82727
  Beta virt. eigenvalues --    1.83016   1.83765   1.84165   1.84536   1.84585
  Beta virt. eigenvalues --    1.84707   1.85426   1.85757   1.85797   1.86211
  Beta virt. eigenvalues --    1.86443   1.87082   1.87469   1.88053   1.88624
  Beta virt. eigenvalues --    1.89483   1.90485   1.90840   1.91395   1.91970
  Beta virt. eigenvalues --    1.92191   1.92618   1.92977   1.93138   1.93580
  Beta virt. eigenvalues --    1.93839   1.93997   1.94245   1.94319   1.94875
  Beta virt. eigenvalues --    1.95055   1.95219   1.95852   1.95989   1.96551
  Beta virt. eigenvalues --    1.96978   1.97184   1.98014   1.98409   1.99023
  Beta virt. eigenvalues --    1.99140   1.99889   2.00167   2.00712   2.01007
  Beta virt. eigenvalues --    2.01389   2.01852   2.02504   2.02587   2.03883
  Beta virt. eigenvalues --    2.04021   2.04468   2.04933   2.07406   2.08530
  Beta virt. eigenvalues --    2.09596   2.10138   2.11600   2.12447   2.15187
  Beta virt. eigenvalues --    2.15847   2.16167   2.16701   2.16935   2.17657
  Beta virt. eigenvalues --    2.17934   2.18366   2.18605   2.19009   2.19203
  Beta virt. eigenvalues --    2.19770   2.20097   2.20578   2.20899   2.21547
  Beta virt. eigenvalues --    2.22318   2.22741   2.22828   2.23307   2.24184
  Beta virt. eigenvalues --    2.24345   2.24984   2.25273   2.27344   2.28245
  Beta virt. eigenvalues --    2.29302   2.29872   2.31462   2.35128   2.38085
  Beta virt. eigenvalues --    2.38534   2.38926   2.39294   2.40044   2.40635
  Beta virt. eigenvalues --    2.40917   2.41346   2.42142   2.42233   2.42605
  Beta virt. eigenvalues --    2.42975   2.43284   2.44436   2.44988   2.45916
  Beta virt. eigenvalues --    2.47088   2.47193   2.47696   2.48967   2.50293
  Beta virt. eigenvalues --    2.51336   2.52246   2.55280   2.55565   2.55984
  Beta virt. eigenvalues --    2.56289   2.56436   2.56513   2.56703   2.57528
  Beta virt. eigenvalues --    2.58341   2.61350   2.62084   2.62416   2.62799
  Beta virt. eigenvalues --    2.62981   2.63496   2.63723   2.63880   2.64062
  Beta virt. eigenvalues --    2.64281   2.64624   2.64916   2.65306   2.65845
  Beta virt. eigenvalues --    2.66127   2.67528   2.69293   2.72552   2.72726
  Beta virt. eigenvalues --    2.72966   2.73357   2.73960   2.74258   2.75540
  Beta virt. eigenvalues --    2.76153   2.80678   2.81743   2.84053   2.85012
  Beta virt. eigenvalues --    2.86413   2.87145   2.87603   2.87757   2.88536
  Beta virt. eigenvalues --    2.88972   2.89240   2.89324   2.89799   2.90910
  Beta virt. eigenvalues --    2.91349   2.92913   2.93069   2.93684   2.94415
  Beta virt. eigenvalues --    2.94971   2.95771   2.95877   2.96351   2.96577
  Beta virt. eigenvalues --    2.96986   2.97270   2.97682   2.98266   2.98985
  Beta virt. eigenvalues --    2.99651   2.99972   3.02131   3.02362   3.04115
  Beta virt. eigenvalues --    3.04609   3.05173   3.05920   3.06882   3.07277
  Beta virt. eigenvalues --    3.07983   3.08821   3.08945   3.09723   3.09976
  Beta virt. eigenvalues --    3.11216   3.12067   3.12636   3.14535   3.18798
  Beta virt. eigenvalues --    3.20010   3.36771   3.62162   3.73377   3.80405
  Beta virt. eigenvalues --    3.87258  45.13561
          Condensed to atoms (all electrons):
          Atomic-Atomic Spin Densities.
 Mulliken charges and spin densities:
               1          2
     1  P    0.272873   0.085147
     2  N   -0.119061   0.073968
     3  C    0.019648   0.004454
     4  H    0.062499   0.000144
     5  H    0.092321  -0.000155
     6  O   -0.542335  -0.001941
     7  P    0.274991   0.090278
     8  C   -0.046238  -0.006300
     9  C   -0.001565   0.005989
    10  H    0.010187   0.001210
    11  C    0.066616  -0.005626
    12  H    0.023277   0.000145
    13  C   -0.004747   0.005991
    14  H    0.009725   0.001247
    15  C   -0.037340  -0.006341
    16  C    0.013904   0.005573
    17  H    0.064531   0.000252
    18  H    0.092141  -0.000231
    19  Ru  -0.020431   1.681540
    20  H    0.172051   0.000991
    21  C   -0.380890   0.003660
    22  C   -0.390136   0.008366
    23  C   -0.388128   0.010885
    24  C   -0.393357   0.002115
    25  C    0.072964  -0.000543
    26  H    0.024864   0.000054
    27  H    0.041229   0.001702
    28  H    0.017441  -0.000130
    29  C    0.082773   0.000117
    30  H    0.013960  -0.000077
    31  H    0.031645   0.001930
    32  H    0.011510   0.000001
    33  C    0.077677   0.000672
    34  H    0.013009   0.001417
    35  H    0.036961  -0.000009
    36  H    0.026399   0.000024
    37  C    0.080530   0.001577
    38  H    0.012396  -0.000048
    39  H    0.016048   0.002438
    40  H    0.025168  -0.000078
    41  C    0.072852  -0.000072
    42  H    0.015480   0.000153
    43  H    0.036296   0.000014
    44  H    0.037467   0.000979
    45  C    0.058200   0.000898
    46  H    0.023698  -0.001393
    47  H    0.035503   0.000133
    48  H    0.019362  -0.000131
    49  C    0.074111   0.000219
    50  H    0.006350  -0.000134
    51  H    0.015526   0.000355
    52  H    0.004760   0.000030
    53  C    0.078893   0.001259
    54  H    0.010597   0.001580
    55  H    0.033698  -0.000031
    56  H    0.026322  -0.000056
    57  C    0.071045  -0.000598
    58  H    0.023092   0.000029
    59  H    0.027452   0.000594
    60  H    0.011867  -0.000027
    61  C    0.077221  -0.000021
    62  H    0.042363   0.001237
    63  H    0.022041   0.000077
    64  H    0.013499  -0.000273
    65  C    0.080627   0.001329
    66  H    0.010380   0.000010
    67  H    0.014098   0.002201
    68  H    0.022944  -0.000072
    69  C    0.069647  -0.000204
    70  H    0.013387   0.000035
    71  H    0.037229   0.000037
    72  H    0.038727   0.001206
    73  O   -0.619913   0.158127
    74  C    0.047684  -0.098146
    75  H    0.164352   0.000862
    76  O   -0.151969  -0.040614
 Sum of Mulliken charges =  -0.00000   2.00000
 Mulliken charges and spin densities with hydrogens summed into heavy atoms:
               1          2
     1  P    0.272873   0.085147
     2  N   -0.119061   0.073968
     3  C    0.174468   0.004443
     6  O   -0.370284  -0.000950
     7  P    0.274991   0.090278
     8  C   -0.046238  -0.006300
     9  C    0.008622   0.007199
    11  C    0.089892  -0.005481
    13  C    0.004978   0.007238
    15  C   -0.037340  -0.006341
    16  C    0.170576   0.005595
    19  Ru  -0.020431   1.681540
    21  C   -0.380890   0.003660
    22  C   -0.390136   0.008366
    23  C   -0.388128   0.010885
    24  C   -0.393357   0.002115
    25  C    0.156497   0.001083
    29  C    0.139889   0.001971
    33  C    0.154047   0.002103
    37  C    0.134141   0.003889
    41  C    0.162095   0.001074
    45  C    0.136763  -0.000493
    49  C    0.100748   0.000470
    53  C    0.149510   0.002753
    57  C    0.133456  -0.000002
    61  C    0.155125   0.001020
    65  C    0.128048   0.003468
    69  C    0.158990   0.001074
    73  O   -0.455561   0.158989
    74  C    0.047684  -0.098146
    76  O   -0.151969  -0.040614
 Electronic spatial extent (au):  <R**2>=          13846.2232
 Charge=              0.0000 electrons
 Dipole moment (field-independent basis, Debye):
    X=              2.1739    Y=             15.9845    Z=              0.2092  Tot=             16.1330
 Quadrupole moment (field-independent basis, Debye-Ang):
   XX=           -170.2001   YY=           -235.2697   ZZ=           -231.0055
   XY=             -2.0648   XZ=            -11.9698   YZ=              3.9366
 Traceless Quadrupole moment (field-independent basis, Debye-Ang):
   XX=             41.9583   YY=            -23.1113   ZZ=            -18.8471
   XY=             -2.0648   XZ=            -11.9698   YZ=              3.9366
 Octapole moment (field-independent basis, Debye-Ang**2):
  XXX=             15.3272  YYY=            172.9162  ZZZ=            -17.2884  XYY=              4.6597
  XXY=            -12.6575  XXZ=             -2.0597  XZZ=             14.6708  YZZ=             -7.7938
  YYZ=            -11.0528  XYZ=              5.6701
 Hexadecapole moment (field-independent basis, Debye-Ang**3):
 XXXX=         -10412.3439 YYYY=          -4525.3691 ZZZZ=          -3418.8313 XXXY=            -10.9386
 XXXZ=            -63.6877 YYYX=              4.8063 YYYZ=             53.1300 ZZZX=            -45.2524
 ZZZY=             42.2098 XXYY=          -2488.9516 XXZZ=          -2281.3551 YYZZ=          -1314.1260
 XXYZ=              4.4336 YYXZ=            -78.9606 ZZXY=            -17.4937
 N-N= 4.443017955920D+03 E-N=-1.353976941744D+04  KE= 1.921314180379D+03
                          Isotropic Fermi Contact Couplings
        Atom                 a.u.       MegaHertz       Gauss      10(-4) cm-1
     1  P(31)              0.10566      95.67639      34.13972      31.91421
     2  N(14)              0.18367      29.67245      10.58787       9.89766
     3  C(13)             -0.00444      -2.49535      -0.89040      -0.83236
     4  H(1)               0.00015       0.33032       0.11786       0.11018
     5  H(1)              -0.00008      -0.18352      -0.06549      -0.06122
     6  O(17)              0.00509      -1.54172      -0.55012      -0.51426
     7  P(31)              0.10407      94.23892      33.62679      31.43472
     8  C(13)             -0.00563      -3.16497      -1.12934      -1.05572
     9  C(13)              0.00678       3.81179       1.36014       1.27148
    10  H(1)               0.00022       0.48925       0.17458       0.16320
    11  C(13)             -0.00118      -0.66409      -0.23696      -0.22152
    12  H(1)               0.00005       0.11664       0.04162       0.03891
    13  C(13)              0.00678       3.81266       1.36045       1.27177
    14  H(1)               0.00023       0.50983       0.18192       0.17006
    15  C(13)             -0.00575      -3.23371      -1.15387      -1.07865
    16  C(13)             -0.00402      -2.26034      -0.80654      -0.75397
    17  H(1)               0.00017       0.37883       0.13518       0.12636
    18  H(1)              -0.00016      -0.35763      -0.12761      -0.11929
    19  Ru(99)            -0.00001       0.00117       0.00042       0.00039
    20  H(1)               0.00074       1.64607       0.58736       0.54907
    21  C(13)              0.00439       2.46736       0.88042       0.82302
    22  C(13)              0.00873       4.90952       1.75184       1.63764
    23  C(13)              0.01131       6.35740       2.26848       2.12060
    24  C(13)              0.00330       1.85534       0.66203       0.61887
    25  C(13)             -0.00048      -0.27243      -0.09721      -0.09087
    26  H(1)               0.00000       0.00034       0.00012       0.00011
    27  H(1)               0.00002       0.04345       0.01550       0.01449
    28  H(1)              -0.00004      -0.08713      -0.03109      -0.02906
    29  C(13)              0.00122       0.68725       0.24523       0.22924
    30  H(1)              -0.00002      -0.03460      -0.01235      -0.01154
    31  H(1)              -0.00002      -0.04990      -0.01781      -0.01665
    32  H(1)              -0.00001      -0.01152      -0.00411      -0.00384
    33  C(13)              0.00223       1.25160       0.44660       0.41749
    34  H(1)               0.00046       1.03836       0.37051       0.34636
    35  H(1)               0.00001       0.02857       0.01020       0.00953
    36  H(1)               0.00004       0.09083       0.03241       0.03030
    37  C(13)              0.00359       2.01929       0.72053       0.67356
    38  H(1)               0.00002       0.04434       0.01582       0.01479
    39  H(1)               0.00083       1.85961       0.66355       0.62030
    40  H(1)               0.00001       0.01982       0.00707       0.00661
    41  C(13)             -0.00041      -0.23164      -0.08265      -0.07727
    42  H(1)               0.00004       0.08981       0.03205       0.02996
    43  H(1)               0.00000       0.00012       0.00004       0.00004
    44  H(1)              -0.00002      -0.04617      -0.01647      -0.01540
    45  C(13)             -0.00036      -0.19994      -0.07134      -0.06669
    46  H(1)               0.00002       0.03525       0.01258       0.01176
    47  H(1)               0.00003       0.07299       0.02604       0.02435
    48  H(1)              -0.00004      -0.08042      -0.02870      -0.02683
    49  C(13)              0.00009       0.05247       0.01872       0.01750
    50  H(1)              -0.00003      -0.07222      -0.02577      -0.02409
    51  H(1)               0.00000       0.00529       0.00189       0.00177
    52  H(1)               0.00001       0.01635       0.00583       0.00545
    53  C(13)              0.00342       1.91978       0.68502       0.64037
    54  H(1)               0.00049       1.08685       0.38781       0.36253
    55  H(1)               0.00000       0.00387       0.00138       0.00129
    56  H(1)               0.00001       0.01671       0.00596       0.00557
    57  C(13)             -0.00067      -0.37511      -0.13385      -0.12512
    58  H(1)              -0.00001      -0.02893      -0.01032      -0.00965
    59  H(1)               0.00005       0.10853       0.03873       0.03620
    60  H(1)              -0.00000      -0.00174      -0.00062      -0.00058
    61  C(13)              0.00077       0.43267       0.15439       0.14432
    62  H(1)              -0.00002      -0.05328      -0.01901      -0.01777
    63  H(1)               0.00000       0.00366       0.00130       0.00122
    64  H(1)              -0.00009      -0.20715      -0.07391      -0.06910
    65  C(13)              0.00320       1.79616       0.64092       0.59914
    66  H(1)               0.00004       0.08406       0.03000       0.02804
    67  H(1)               0.00078       1.73937       0.62065       0.58019
    68  H(1)               0.00001       0.01713       0.00611       0.00571
    69  C(13)             -0.00034      -0.19086      -0.06810      -0.06366
    70  H(1)               0.00001       0.02800       0.00999       0.00934
    71  H(1)               0.00001       0.02155       0.00769       0.00719
    72  H(1)              -0.00003      -0.06113      -0.02181      -0.02039
    73  O(17)              0.13635     -41.32669     -14.74639     -13.78510
    74  C(13)             -0.05501     -30.91861     -11.03253     -10.31334
    75  H(1)              -0.00211      -4.70708      -1.67960      -1.57011
    76  O(17)             -0.01653       5.00956       1.78754       1.67101
 --------------------------------------------------------
       Center         ----  Spin Dipole Couplings  ----
                      3XX-RR        3YY-RR        3ZZ-RR
 --------------------------------------------------------
     1   Atom        0.078186      0.004577     -0.082763
     2   Atom       -0.116121      0.214801     -0.098680
     3   Atom        0.001744      0.008663     -0.010407
     4   Atom        0.001746      0.001608     -0.003353
     5   Atom       -0.000641      0.000127      0.000514
     6   Atom        0.023271      0.001016     -0.024287
     7   Atom        0.080499      0.010131     -0.090630
     8   Atom        0.003973      0.010999     -0.014971
     9   Atom       -0.004759      0.007701     -0.002941
    10   Atom       -0.000803      0.002609     -0.001805
    11   Atom       -0.001015      0.006908     -0.005893
    12   Atom       -0.000859      0.002047     -0.001188
    13   Atom       -0.004851      0.007687     -0.002836
    14   Atom       -0.000887      0.002579     -0.001692
    15   Atom        0.001094      0.010951     -0.012045
    16   Atom        0.000875      0.009171     -0.010045
    17   Atom        0.001657      0.001671     -0.003328
    18   Atom       -0.000913     -0.000212      0.001125
    19   Atom        0.214321      0.360388     -0.574709
    20   Atom       -0.011664     -0.011386      0.023051
    21   Atom        0.004225     -0.004546      0.000321
    22   Atom        0.011690     -0.008482     -0.003208
    23   Atom        0.014899     -0.009539     -0.005360
    24   Atom        0.003477     -0.004046      0.000569
    25   Atom       -0.000356     -0.000220      0.000576
    26   Atom       -0.000359      0.001914     -0.001555
    27   Atom       -0.003685     -0.001017      0.004702
    28   Atom       -0.000469     -0.000615      0.001083
    29   Atom        0.002538     -0.003850      0.001312
    30   Atom        0.000253     -0.001944      0.001691
    31   Atom        0.000214     -0.004749      0.004535
    32   Atom        0.002811     -0.002304     -0.000507
    33   Atom        0.004225     -0.001457     -0.002768
    34   Atom        0.001172     -0.000793     -0.000379
    35   Atom        0.003079     -0.001533     -0.001546
    36   Atom        0.001775      0.000015     -0.001790
    37   Atom        0.005056     -0.003433     -0.001623
    38   Atom        0.003240     -0.001393     -0.001847
    39   Atom        0.002114     -0.001219     -0.000895
    40   Atom        0.001694     -0.001334     -0.000360
    41   Atom        0.005531     -0.001781     -0.003750
    42   Atom        0.003011     -0.000973     -0.002038
    43   Atom        0.004196     -0.001960     -0.002235
    44   Atom        0.006478     -0.001314     -0.005164
    45   Atom        0.002674     -0.004747      0.002072
    46   Atom        0.002345     -0.003471      0.001126
    47   Atom        0.000357     -0.004831      0.004474
    48   Atom        0.001403     -0.001961      0.000558
    49   Atom        0.002636     -0.004037      0.001401
    50   Atom        0.000889     -0.002155      0.001266
    51   Atom        0.001046     -0.006234      0.005188
    52   Atom        0.003635     -0.002725     -0.000910
    53   Atom        0.005530     -0.002006     -0.003525
    54   Atom        0.001366     -0.000922     -0.000443
    55   Atom        0.003358     -0.001663     -0.001695
    56   Atom        0.001943     -0.000097     -0.001846
    57   Atom       -0.000112      0.000078      0.000034
    58   Atom       -0.000239      0.002121     -0.001882
    59   Atom       -0.003837      0.000335      0.003502
    60   Atom       -0.000320     -0.000460      0.000780
    61   Atom        0.001248     -0.004180      0.002933
    62   Atom        0.000368     -0.003639      0.003271
    63   Atom       -0.001222     -0.003924      0.005146
    64   Atom        0.000836     -0.001840      0.001004
    65   Atom        0.004659     -0.003252     -0.001407
    66   Atom        0.003162     -0.001433     -0.001728
    67   Atom        0.001880     -0.001169     -0.000711
    68   Atom        0.001454     -0.001241     -0.000213
    69   Atom        0.005587     -0.001846     -0.003741
    70   Atom        0.002842     -0.000980     -0.001861
    71   Atom        0.004354     -0.001969     -0.002385
    72   Atom        0.006673     -0.001240     -0.005433
    73   Atom        0.062542      0.288519     -0.351061
    74   Atom       -0.038353     -0.054727      0.093080
    75   Atom       -0.028857      0.002110      0.026747
    76   Atom       -0.032817     -0.071588      0.104405
 --------------------------------------------------------
                        XY            XZ            YZ
 --------------------------------------------------------
     1   Atom        0.133493     -0.039983     -0.036811
     2   Atom        0.006821      0.010794      0.011227
     3   Atom        0.002188     -0.003181     -0.002867
     4   Atom        0.004077     -0.001621     -0.001833
     5   Atom        0.004803     -0.005381     -0.006215
     6   Atom        0.021021     -0.006712     -0.014204
     7   Atom       -0.141953     -0.040098      0.034354
     8   Atom        0.010964     -0.008463     -0.003680
     9   Atom        0.001667      0.001436     -0.000645
    10   Atom        0.002002     -0.000489     -0.000886
    11   Atom        0.000190     -0.003084      0.000393
    12   Atom        0.000060     -0.000163      0.000132
    13   Atom       -0.001631      0.001326      0.000593
    14   Atom       -0.001867     -0.000570      0.001143
    15   Atom       -0.009707     -0.011083      0.006568
    16   Atom       -0.001572     -0.003555      0.003403
    17   Atom       -0.004022     -0.001717      0.001978
    18   Atom       -0.003940     -0.005147      0.006173
    19   Atom        0.000935     -0.010148      0.060485
    20   Atom       -0.002009     -0.010709      0.005462
    21   Atom       -0.007141      0.010058     -0.006151
    22   Atom        0.006418     -0.014667     -0.005413
    23   Atom       -0.008501     -0.015682      0.006318
    24   Atom        0.005828      0.008904      0.005251
    25   Atom        0.003274      0.004039      0.004281
    26   Atom        0.003293      0.002319      0.003208
    27   Atom        0.002754      0.005353      0.008159
    28   Atom        0.001394      0.002261      0.002328
    29   Atom        0.000521      0.006050      0.000305
    30   Atom        0.000386      0.003073      0.000433
    31   Atom       -0.000602      0.008521     -0.001675
    32   Atom       -0.000574      0.003517     -0.000462
    33   Atom        0.003555      0.002027      0.000957
    34   Atom        0.001344      0.001472      0.000835
    35   Atom        0.001100      0.001112      0.000422
    36   Atom        0.002604      0.000749      0.000426
    37   Atom        0.003177     -0.005177     -0.001905
    38   Atom        0.001702     -0.000934     -0.000032
    39   Atom        0.000012     -0.001967      0.000107
    40   Atom        0.001459     -0.002670     -0.001419
    41   Atom       -0.002457     -0.000693     -0.000204
    42   Atom       -0.001974     -0.001088      0.000345
    43   Atom       -0.001202      0.000869     -0.000264
    44   Atom       -0.005239      0.000997     -0.000592
    45   Atom       -0.001947     -0.007008      0.001721
    46   Atom       -0.005441     -0.009944      0.006257
    47   Atom        0.000272     -0.006645     -0.000127
    48   Atom       -0.001162     -0.003486      0.001362
    49   Atom       -0.000358      0.006039     -0.000048
    50   Atom       -0.000491      0.003275     -0.000360
    51   Atom        0.000651      0.009256      0.001219
    52   Atom        0.000973      0.004010      0.000787
    53   Atom       -0.004140      0.001987     -0.000861
    54   Atom       -0.001446      0.001493     -0.000828
    55   Atom       -0.000951      0.000994     -0.000374
    56   Atom       -0.002693      0.000608     -0.000250
    57   Atom       -0.003777      0.004033     -0.004262
    58   Atom       -0.003539      0.002162     -0.002978
    59   Atom       -0.003921      0.005409     -0.008111
    60   Atom       -0.001765      0.002319     -0.002398
    61   Atom        0.001558     -0.007178     -0.001684
    62   Atom        0.003858     -0.009627     -0.006055
    63   Atom       -0.000190     -0.005812      0.000267
    64   Atom        0.000870     -0.003339     -0.001232
    65   Atom       -0.002800     -0.004963      0.001683
    66   Atom       -0.001578     -0.001074      0.000090
    67   Atom       -0.000018     -0.001990     -0.000091
    68   Atom       -0.001346     -0.002679      0.001384
    69   Atom        0.002366     -0.001336     -0.000108
    70   Atom        0.001884     -0.001411     -0.000460
    71   Atom        0.001295      0.000517      0.000223
    72   Atom        0.005525     -0.000086      0.000155
    73   Atom        0.012131     -0.026086      0.055138
    74   Atom       -0.002902      0.005576     -0.005861
    75   Atom        0.000582      0.003427      0.017664
    76   Atom       -0.001403      0.007796     -0.008988
 --------------------------------------------------------


 ---------------------------------------------------------------------------------
              Anisotropic Spin Dipole Couplings in Principal Axis System
 ---------------------------------------------------------------------------------

       Atom             a.u.   MegaHertz   Gauss  10(-4) cm-1        Axes

              Baa    -0.1006   -21.741    -7.758    -7.252 -0.4100  0.7176  0.5630
     1 P(31)  Bbb    -0.0900   -19.457    -6.943    -6.490  0.4755 -0.3585  0.8033
              Bcc     0.1906    41.198    14.701    13.742  0.7783  0.5971 -0.1943
 
              Baa    -0.1213    -4.678    -1.669    -1.560  0.9031 -0.0040 -0.4293
     2 N(14)  Bbb    -0.0941    -3.628    -1.295    -1.210  0.4288 -0.0423  0.9024
              Bcc     0.2154     8.306     2.964     2.771  0.0217  0.9991  0.0365
 
              Baa    -0.0115    -1.537    -0.548    -0.513  0.2147  0.1149  0.9699
     3 C(13)  Bbb     0.0015     0.199     0.071     0.066  0.9236 -0.3468 -0.1634
              Bcc     0.0100     1.337     0.477     0.446  0.3176  0.9309 -0.1806
 
              Baa    -0.0040    -2.125    -0.758    -0.709  0.0996  0.2436  0.9648
     4 H(1)   Bbb    -0.0024    -1.272    -0.454    -0.424  0.7186 -0.6882  0.0996
              Bcc     0.0064     3.397     1.212     1.133  0.6883  0.6834 -0.2436
 
              Baa    -0.0060    -3.186    -1.137    -1.063  0.2416  0.5926  0.7684
     5 H(1)   Bbb    -0.0050    -2.683    -0.958    -0.895  0.8151 -0.5536  0.1706
              Bcc     0.0110     5.870     2.095     1.958 -0.5265 -0.5851  0.6168
 
              Baa    -0.0308     2.229     0.795     0.744 -0.0596  0.4394  0.8963
     6 O(17)  Bbb    -0.0079     0.572     0.204     0.191 -0.5709  0.7216 -0.3917
              Bcc     0.0387    -2.801    -0.999    -0.934  0.8189  0.5350 -0.2079
 
              Baa    -0.1029   -22.244    -7.937    -7.420  0.3802  0.6710 -0.6366
     7 P(31)  Bbb    -0.0982   -21.231    -7.576    -7.082  0.5061  0.4252  0.7504
              Bcc     0.2011    43.475    15.513    14.502  0.7742 -0.6075 -0.1779
 
              Baa    -0.0182    -2.444    -0.872    -0.815  0.3649 -0.0197  0.9309
     8 C(13)  Bbb    -0.0026    -0.349    -0.125    -0.117  0.7052 -0.6469 -0.2901
              Bcc     0.0208     2.793     0.997     0.932  0.6079  0.7623 -0.2222
 
              Baa    -0.0058    -0.776    -0.277    -0.259  0.8727 -0.1304 -0.4706
     9 C(13)  Bbb    -0.0022    -0.289    -0.103    -0.096  0.4719 -0.0222  0.8814
              Bcc     0.0079     1.065     0.380     0.355  0.1254  0.9912 -0.0422
 
              Baa    -0.0020    -1.071    -0.382    -0.357  0.2954  0.0550  0.9538
    10 H(1)   Bbb    -0.0017    -0.912    -0.326    -0.304  0.8608 -0.4485 -0.2408
              Bcc     0.0037     1.984     0.708     0.662  0.4145  0.8921 -0.1799
 
              Baa    -0.0074    -0.993    -0.354    -0.331  0.4355 -0.0305  0.8997
    11 C(13)  Bbb     0.0005     0.064     0.023     0.021  0.9001  0.0000 -0.4357
              Bcc     0.0069     0.929     0.331     0.310  0.0133  0.9995  0.0275
 
              Baa    -0.0013    -0.673    -0.240    -0.225  0.3802 -0.0437  0.9239
    12 H(1)   Bbb    -0.0008    -0.422    -0.151    -0.141  0.9247 -0.0020 -0.3806
              Bcc     0.0021     1.096     0.391     0.365  0.0184  0.9990  0.0396
 
              Baa    -0.0057    -0.769    -0.274    -0.257  0.8915  0.1276 -0.4347
    13 C(13)  Bbb    -0.0022    -0.293    -0.104    -0.098  0.4361  0.0180  0.8997
              Bcc     0.0079     1.062     0.379     0.354 -0.1226  0.9917  0.0396
 
              Baa    -0.0020    -1.071    -0.382    -0.357  0.2773 -0.1246  0.9527
    14 H(1)   Bbb    -0.0017    -0.901    -0.321    -0.300  0.8774  0.4370 -0.1982
              Bcc     0.0037     1.972     0.704     0.658 -0.3916  0.8908  0.2305
 
              Baa    -0.0184    -2.468    -0.881    -0.823  0.4799 -0.0374  0.8765
    15 C(13)  Bbb    -0.0026    -0.351    -0.125    -0.117  0.6774  0.6507 -0.3431
              Bcc     0.0210     2.819     1.006     0.940 -0.5575  0.7584  0.3376
 
              Baa    -0.0115    -1.542    -0.550    -0.514  0.2574 -0.1379  0.9564
    16 C(13)  Bbb     0.0012     0.163     0.058     0.054  0.9373  0.2761 -0.2124
              Bcc     0.0103     1.379     0.492     0.460 -0.2348  0.9512  0.2004
 
              Baa    -0.0040    -2.161    -0.771    -0.721  0.1089 -0.2556  0.9606
    17 H(1)   Bbb    -0.0023    -1.248    -0.445    -0.416  0.7266  0.6800  0.0986
              Bcc     0.0064     3.409     1.216     1.137 -0.6784  0.6872  0.2598
 
              Baa    -0.0059    -3.151    -1.124    -1.051  0.2866 -0.6061  0.7420
    18 H(1)   Bbb    -0.0045    -2.383    -0.850    -0.795  0.8188  0.5570  0.1388
              Bcc     0.0104     5.533     1.974     1.846 -0.4974  0.5678  0.6559
 
              Baa    -0.5787    14.181     5.060     4.730  0.0128 -0.0643  0.9978
    19 Ru(99) Bbb     0.2145    -5.255    -1.875    -1.753  0.9999 -0.0010 -0.0129
              Bcc     0.3643    -8.926    -3.185    -2.977  0.0019  0.9979  0.0643
 
              Baa    -0.0148    -7.885    -2.814    -2.630  0.9544  0.1697  0.2457
    20 H(1)   Bbb    -0.0122    -6.503    -2.320    -2.169 -0.1246  0.9741 -0.1888
              Bcc     0.0270    14.388     5.134     4.799 -0.2713  0.1496  0.9508
 
              Baa    -0.0088    -1.177    -0.420    -0.392  0.1596  0.8905  0.4261
    21 C(13)  Bbb    -0.0079    -1.064    -0.380    -0.355  0.6929  0.2064 -0.6908
              Bcc     0.0167     2.241     0.800     0.747  0.7031 -0.4055  0.5841
 
              Baa    -0.0129    -1.729    -0.617    -0.577  0.3592  0.4689  0.8069
    22 C(13)  Bbb    -0.0100    -1.343    -0.479    -0.448 -0.4474  0.8453 -0.2921
              Bcc     0.0229     3.072     1.096     1.025  0.8190  0.2561 -0.5134
 
              Baa    -0.0148    -1.988    -0.709    -0.663  0.2775 -0.5201  0.8077
    23 C(13)  Bbb    -0.0117    -1.567    -0.559    -0.523  0.4695  0.8069  0.3583
              Bcc     0.0265     3.555     1.269     1.186  0.8382 -0.2798 -0.4681
 
              Baa    -0.0075    -1.003    -0.358    -0.335 -0.0116  0.8431 -0.5376
    24 C(13)  Bbb    -0.0069    -0.927    -0.331    -0.309  0.7156 -0.3686 -0.5934
              Bcc     0.0144     1.930     0.689     0.644  0.6984  0.3916  0.5991
 
              Baa    -0.0042    -0.568    -0.203    -0.190 -0.3485 -0.5358  0.7691
    25 C(13)  Bbb    -0.0036    -0.477    -0.170    -0.159  0.7677 -0.6339 -0.0937
              Bcc     0.0078     1.045     0.373     0.349  0.5378  0.5578  0.6322
 
              Baa    -0.0036    -1.899    -0.678    -0.633 -0.2842 -0.3518  0.8919
    26 H(1)   Bbb    -0.0027    -1.443    -0.515    -0.481  0.8062 -0.5912  0.0237
              Bcc     0.0063     3.343     1.193     1.115  0.5189  0.7258  0.4517
 
              Baa    -0.0073    -3.875    -1.383    -1.292 -0.4689 -0.6178  0.6312
    27 H(1)   Bbb    -0.0054    -2.883    -1.029    -0.962  0.8139 -0.5799  0.0370
              Bcc     0.0127     6.758     2.411     2.254  0.3431  0.5310  0.7748
 
              Baa    -0.0023    -1.227    -0.438    -0.409 -0.3335 -0.6576  0.6755
    28 H(1)   Bbb    -0.0019    -1.022    -0.365    -0.341  0.8036 -0.5730 -0.1610
              Bcc     0.0042     2.249     0.802     0.750  0.4930  0.4892  0.7195
 
              Baa    -0.0042    -0.564    -0.201    -0.188 -0.6395  0.3550  0.6819
    29 C(13)  Bbb    -0.0038    -0.514    -0.184    -0.172  0.2038  0.9335 -0.2949
              Bcc     0.0080     1.078     0.385     0.360  0.7413  0.0497  0.6693
 
              Baa    -0.0022    -1.168    -0.417    -0.390  0.7818 -0.1687 -0.6003
    30 H(1)   Bbb    -0.0020    -1.064    -0.379    -0.355  0.0750  0.9812 -0.1780
              Bcc     0.0042     2.232     0.796     0.744  0.6190  0.0941  0.7797
 
              Baa    -0.0066    -3.520    -1.256    -1.174  0.7314 -0.3115 -0.6067
    31 H(1)   Bbb    -0.0047    -2.532    -0.903    -0.845  0.3086  0.9445 -0.1129
              Bcc     0.0113     6.052     2.160     2.019  0.6082 -0.1047  0.7869
 
              Baa    -0.0028    -1.470    -0.525    -0.490 -0.5063  0.2123  0.8358
    32 H(1)   Bbb    -0.0024    -1.258    -0.449    -0.420  0.1954  0.9723 -0.1286
              Bcc     0.0051     2.728     0.974     0.910  0.8399 -0.0982  0.5337
 
              Baa    -0.0033    -0.445    -0.159    -0.148 -0.2564 -0.0075  0.9666
    33 C(13)  Bbb    -0.0032    -0.425    -0.152    -0.142 -0.4086  0.9071 -0.1013
              Bcc     0.0065     0.869     0.310     0.290  0.8760  0.4209  0.2356
 
              Baa    -0.0015    -0.800    -0.285    -0.267 -0.3056  0.9108 -0.2776
    34 H(1)   Bbb    -0.0013    -0.675    -0.241    -0.225 -0.5444  0.0721  0.8357
              Bcc     0.0028     1.475     0.526     0.492  0.7812  0.4065  0.4739
 
              Baa    -0.0020    -1.047    -0.373    -0.349 -0.0099 -0.6883  0.7254
    35 H(1)   Bbb    -0.0016    -0.873    -0.311    -0.291 -0.3147  0.6907  0.6511
              Bcc     0.0036     1.919     0.685     0.640  0.9491  0.2219  0.2234
 
              Baa    -0.0020    -1.059    -0.378    -0.353 -0.4313  0.3885  0.8143
    36 H(1)   Bbb    -0.0018    -0.956    -0.341    -0.319 -0.4084  0.7207 -0.5602
              Bcc     0.0038     2.015     0.719     0.672  0.8044  0.5742  0.1522
 
              Baa    -0.0046    -0.623    -0.222    -0.208  0.0832  0.7724  0.6297
    37 C(13)  Bbb    -0.0043    -0.582    -0.208    -0.194  0.5363 -0.5673  0.6250
              Bcc     0.0090     1.205     0.430     0.402  0.8399  0.2858 -0.4614
 
              Baa    -0.0022    -1.188    -0.424    -0.396  0.3149 -0.6148  0.7231
    38 H(1)   Bbb    -0.0017    -0.913    -0.326    -0.305 -0.1234  0.7288  0.6735
              Bcc     0.0039     2.101     0.750     0.701  0.9411  0.3013 -0.1537
 
              Baa    -0.0019    -1.004    -0.358    -0.335  0.4368 -0.1508  0.8868
    39 H(1)   Bbb    -0.0012    -0.642    -0.229    -0.214  0.0744  0.9885  0.1314
              Bcc     0.0031     1.647     0.588     0.549  0.8965 -0.0086 -0.4430
 
              Baa    -0.0025    -1.310    -0.468    -0.437  0.2763  0.5950  0.7548
    40 H(1)   Bbb    -0.0018    -0.958    -0.342    -0.319 -0.5815  0.7287 -0.3616
              Bcc     0.0043     2.268     0.809     0.757  0.7652  0.3390 -0.5473
 
              Baa    -0.0039    -0.523    -0.187    -0.175  0.1354  0.2492  0.9589
    41 C(13)  Bbb    -0.0024    -0.324    -0.116    -0.108  0.2617  0.9245 -0.2772
              Bcc     0.0063     0.848     0.302     0.283  0.9556 -0.2884 -0.0600
 
              Baa    -0.0023    -1.211    -0.432    -0.404  0.2386  0.1062  0.9653
    42 H(1)   Bbb    -0.0018    -0.943    -0.336    -0.315  0.3389  0.9224 -0.1853
              Bcc     0.0040     2.154     0.769     0.718  0.9101 -0.3713 -0.1841
 
              Baa    -0.0024    -1.281    -0.457    -0.427 -0.0402  0.4313  0.9013
    43 H(1)   Bbb    -0.0021    -1.143    -0.408    -0.381  0.2240  0.8829 -0.4126
              Bcc     0.0045     2.424     0.865     0.808  0.9738 -0.1854  0.1321
 
              Baa    -0.0053    -2.808    -1.002    -0.937 -0.0441  0.0906  0.9949
    44 H(1)   Bbb    -0.0039    -2.103    -0.750    -0.702  0.4530  0.8894 -0.0610
              Bcc     0.0092     4.911     1.752     1.638  0.8904 -0.4480  0.0802
 
              Baa    -0.0052    -0.701    -0.250    -0.234  0.2438  0.9698  0.0055
    45 C(13)  Bbb    -0.0046    -0.620    -0.221    -0.207  0.6587 -0.1698  0.7330
              Bcc     0.0098     1.322     0.472     0.441  0.7118 -0.1751 -0.6802
 
              Baa    -0.0086    -4.595    -1.640    -1.533  0.4900 -0.4147  0.7668
    46 H(1)   Bbb    -0.0067    -3.582    -1.278    -1.195  0.5729  0.8162  0.0753
              Bcc     0.0153     8.176     2.918     2.727  0.6571 -0.4024 -0.6375
 
              Baa    -0.0049    -2.611    -0.932    -0.871 -0.3132  0.9263 -0.2096
    47 H(1)   Bbb    -0.0045    -2.392    -0.853    -0.798  0.7415  0.3764  0.5554
              Bcc     0.0094     5.003     1.785     1.669 -0.5934 -0.0186  0.8047
 
              Baa    -0.0027    -1.452    -0.518    -0.484  0.4105 -0.6009  0.6859
    48 H(1)   Bbb    -0.0022    -1.188    -0.424    -0.396  0.5604  0.7596  0.3301
              Bcc     0.0049     2.640     0.942     0.881  0.7194 -0.2489 -0.6485
 
              Baa    -0.0043    -0.571    -0.204    -0.190  0.4905  0.7008 -0.5179
    49 C(13)  Bbb    -0.0038    -0.516    -0.184    -0.172 -0.4566  0.7129  0.5322
              Bcc     0.0081     1.086     0.388     0.362  0.7422 -0.0245  0.6697
 
              Baa    -0.0023    -1.235    -0.441    -0.412  0.5504  0.7149 -0.4313
    50 H(1)   Bbb    -0.0021    -1.119    -0.399    -0.373 -0.4778  0.6933  0.5395
              Bcc     0.0044     2.354     0.840     0.785  0.6847 -0.0908  0.7231
 
              Baa    -0.0066    -3.523    -1.257    -1.175  0.5412  0.6797 -0.4951
    51 H(1)   Bbb    -0.0061    -3.252    -1.161    -1.085 -0.5650  0.7300  0.3846
              Bcc     0.0127     6.776     2.418     2.260  0.6228  0.0716  0.7791
 
              Baa    -0.0033    -1.776    -0.634    -0.592 -0.4158 -0.3967  0.8184
    52 H(1)   Bbb    -0.0028    -1.502    -0.536    -0.501 -0.3118  0.9075  0.2814
              Bcc     0.0061     3.278     1.170     1.093  0.8543  0.1382  0.5010
 
              Baa    -0.0039    -0.529    -0.189    -0.176 -0.2287 -0.0568  0.9718
    53 C(13)  Bbb    -0.0038    -0.514    -0.184    -0.172  0.3749  0.9161  0.1418
              Bcc     0.0078     1.043     0.372     0.348  0.8984 -0.3968  0.1883
 
              Baa    -0.0016    -0.877    -0.313    -0.293  0.3306  0.9173  0.2218
    54 H(1)   Bbb    -0.0013    -0.685    -0.245    -0.229 -0.5022 -0.0279  0.8643
              Bcc     0.0029     1.562     0.557     0.521  0.7990 -0.3972  0.4515
 
              Baa    -0.0021    -1.096    -0.391    -0.366 -0.0205  0.6645  0.7470
    55 H(1)   Bbb    -0.0017    -0.896    -0.320    -0.299  0.2626  0.7245 -0.6373
              Bcc     0.0037     1.992     0.711     0.664  0.9647 -0.1831  0.1893
 
              Baa    -0.0021    -1.109    -0.396    -0.370 -0.4875 -0.5805  0.6522
    56 H(1)   Bbb    -0.0018    -0.959    -0.342    -0.320  0.3020  0.5888  0.7497
              Bcc     0.0039     2.068     0.738     0.690  0.8192 -0.5625  0.1117
 
              Baa    -0.0043    -0.573    -0.204    -0.191 -0.3000  0.5221  0.7984
    57 C(13)  Bbb    -0.0038    -0.508    -0.181    -0.169  0.7720  0.6245 -0.1183
              Bcc     0.0081     1.081     0.386     0.360  0.5603 -0.5809  0.5904
 
              Baa    -0.0035    -1.885    -0.673    -0.629 -0.2522  0.3226  0.9123
    58 H(1)   Bbb    -0.0028    -1.488    -0.531    -0.496  0.8071  0.5903  0.0143
              Bcc     0.0063     3.373     1.204     1.125 -0.5339  0.7399 -0.4092
 
              Baa    -0.0068    -3.636    -1.298    -1.213  0.7207 -0.3088 -0.6207
    59 H(1)   Bbb    -0.0060    -3.219    -1.149    -1.074  0.5854  0.7506  0.3064
              Bcc     0.0128     6.856     2.446     2.287  0.3713 -0.5842  0.7218
 
              Baa    -0.0023    -1.237    -0.442    -0.413 -0.0862  0.7556  0.6493
    60 H(1)   Bbb    -0.0021    -1.124    -0.401    -0.375  0.8478  0.3980 -0.3505
              Bcc     0.0044     2.362     0.843     0.788  0.5233 -0.5203  0.6749
 
              Baa    -0.0051    -0.690    -0.246    -0.230  0.7530 -0.0756  0.6537
    61 C(13)  Bbb    -0.0046    -0.611    -0.218    -0.204 -0.0509  0.9837  0.1724
              Bcc     0.0097     1.301     0.464     0.434 -0.6561 -0.1631  0.7368
 
              Baa    -0.0084    -4.476    -1.597    -1.493  0.5842  0.4147  0.6977
    62 H(1)   Bbb    -0.0060    -3.189    -1.138    -1.064 -0.5535  0.8323 -0.0312
              Bcc     0.0144     7.666     2.735     2.557 -0.5936 -0.3679  0.7158
 
              Baa    -0.0047    -2.490    -0.888    -0.830  0.8602  0.0376  0.5085
    63 H(1)   Bbb    -0.0039    -2.098    -0.749    -0.700 -0.0191  0.9990 -0.0416
              Bcc     0.0086     4.587     1.637     1.530 -0.5096  0.0261  0.8600
 
              Baa    -0.0026    -1.367    -0.488    -0.456  0.5334  0.5094  0.6753
    64 H(1)   Bbb    -0.0020    -1.090    -0.389    -0.364 -0.5102  0.8305 -0.2235
              Bcc     0.0046     2.457     0.877     0.820 -0.6747 -0.2254  0.7028
 
              Baa    -0.0043    -0.574    -0.205    -0.191  0.2079 -0.6431  0.7370
    65 C(13)  Bbb    -0.0041    -0.548    -0.196    -0.183  0.5036  0.7163  0.4830
              Bcc     0.0084     1.122     0.400     0.374  0.8386 -0.2707 -0.4727
 
              Baa    -0.0022    -1.149    -0.410    -0.383  0.3298  0.6354  0.6982
    66 H(1)   Bbb    -0.0017    -0.905    -0.323    -0.302  0.0804  0.7180 -0.6914
              Bcc     0.0039     2.054     0.733     0.685  0.9406 -0.2841 -0.1857
 
              Baa    -0.0018    -0.962    -0.343    -0.321  0.4714  0.1381  0.8710
    67 H(1)   Bbb    -0.0012    -0.617    -0.220    -0.206 -0.0716  0.9904 -0.1182
              Bcc     0.0030     1.579     0.563     0.527  0.8790  0.0067 -0.4768
 
              Baa    -0.0024    -1.270    -0.453    -0.424  0.3611 -0.5166  0.7764
    68 H(1)   Bbb    -0.0017    -0.921    -0.329    -0.307  0.5565  0.7874  0.2651
              Bcc     0.0041     2.191     0.782     0.731  0.7483 -0.3363 -0.5718
 
              Baa    -0.0040    -0.531    -0.190    -0.177  0.1716 -0.1422  0.9749
    69 C(13)  Bbb    -0.0025    -0.333    -0.119    -0.111 -0.2486  0.9512  0.1825
              Bcc     0.0064     0.865     0.309     0.289  0.9533  0.2737 -0.1279
 
              Baa    -0.0023    -1.205    -0.430    -0.402  0.2997 -0.1007  0.9487
    70 H(1)   Bbb    -0.0017    -0.923    -0.329    -0.308 -0.3201  0.9261  0.1995
              Bcc     0.0040     2.128     0.759     0.710  0.8987  0.3635 -0.2453
 
              Baa    -0.0025    -1.325    -0.473    -0.442  0.0115 -0.4230  0.9061
    71 H(1)   Bbb    -0.0022    -1.157    -0.413    -0.386 -0.2086  0.8852  0.4159
              Bcc     0.0047     2.482     0.886     0.828  0.9779  0.1938  0.0780
 
              Baa    -0.0055    -2.911    -1.039    -0.971  0.0586 -0.1132  0.9918
    72 H(1)   Bbb    -0.0041    -2.164    -0.772    -0.722 -0.4533  0.8822  0.1275
              Bcc     0.0095     5.075     1.811     1.693  0.8894  0.4570 -0.0004
 
              Baa    -0.3575    25.870     9.231     8.629  0.0642 -0.0861  0.9942
    73 O(17)  Bbb     0.0639    -4.621    -1.649    -1.541  0.9970 -0.0372 -0.0676
              Bcc     0.2937   -21.249    -7.582    -7.088  0.0428  0.9956  0.0834
 
              Baa    -0.0554    -7.432    -2.652    -2.479  0.1573  0.9870  0.0331
    74 C(13)  Bbb    -0.0382    -5.122    -1.828    -1.709  0.9866 -0.1556 -0.0489
              Bcc     0.0936    12.554     4.480     4.188  0.0431 -0.0403  0.9983
 
              Baa    -0.0291   -15.514    -5.536    -5.175  0.9975  0.0196 -0.0674
    75 H(1)   Bbb    -0.0071    -3.764    -1.343    -1.256 -0.0484  0.8873 -0.4587
              Bcc     0.0361    19.278     6.879     6.431  0.0508  0.4609  0.8860
 
              Baa    -0.0721     5.215     1.861     1.740  0.0258  0.9984  0.0497
    76 O(17)  Bbb    -0.0332     2.405     0.858     0.802  0.9981 -0.0229 -0.0580
              Bcc     0.1053    -7.620    -2.719    -2.542  0.0568 -0.0511  0.9971
 

 ---------------------------------------------------------------------------------

 Unable to Open any file for archive entry.
 1\1\GINC-NODE107\SP\UB3LYP\def2SVP\C24H45N1O3P2Ru1(3)\DO57CIG\16-Jan-2
 025\0\\# ub3lyp scrf=(smd,solvent=water) def2svp empiricaldispersion=g
 d3bj int=ultrafine scf=xqc guess=read\\A_Ru_Cis_DFT_B3LYP_def2svp_smd_
 water_T_Opt_3MLCT_from_3MLCT_trans\\0,3\P,0,2.412868,-0.094449,-0.1442
 65\N,0,-0.014745,1.67011,-0.067832\C,0,2.18893,1.497128,-1.074514\H,0,
 3.113566,2.087781,-1.109246\H,0,1.953738,1.189827,-2.107226\O,0,-0.142
 639,-1.080228,-2.140182\P,0,-2.428322,-0.088089,0.052854\C,0,1.054182,
 2.32638,-0.534279\C,0,1.114542,3.72489,-0.504876\H,0,1.992958,4.241783
 ,-0.894696\C,0,0.04121,4.42916,0.042209\H,0,0.062461,5.520526,0.084666
 \C,0,-1.057448,3.726797,0.538424\H,0,-1.91242,4.245906,0.974803\C,0,-1
 .05312,2.328339,0.459942\C,0,-2.212963,1.510172,0.968938\H,0,-3.132233
 ,2.11112,0.970919\H,0,-2.011577,1.219289,2.014087\Ru,0,-0.01216227,-1.
 01070848,-0.05203733\H,0,0.692632,-1.43269,-2.464648\C,0,-3.251867,0.4
 14832,-1.597843\C,0,-3.689242,-1.026507,1.141738\C,0,3.672968,-1.03308
 4,-1.235163\C,0,3.23895,0.41126,1.50261\C,0,2.316777,1.435151,2.194192
 \H,0,2.315062,2.400477,1.671025\H,0,1.27969,1.092861,2.284222\H,0,2.70
 2246,1.612888,3.211336\C,0,3.382488,-0.831614,2.403768\H,0,3.521161,-0
 .503169,3.446828\H,0,2.501202,-1.483887,2.374833\H,0,4.256058,-1.43457
 8,2.131644\C,0,4.614888,1.069055,1.328299\H,0,4.960743,1.42544,2.3136\
 H,0,5.368667,0.364833,0.953429\H,0,4.578807,1.940314,0.657466\C,0,4.74
 511,-0.114754,-1.842777\H,0,5.322707,0.432533,-1.089586\H,0,5.451726,-
 0.73695,-2.41789\H,0,4.308508,0.612477,-2.542041\C,0,4.330706,-2.15353
 1,-0.417947\H,0,4.873638,-2.822089,-1.106183\H,0,5.057683,-1.766837,0.
 307096\H,0,3.584063,-2.758676,0.11881\C,0,2.906494,-1.687136,-2.394227
 \H,0,2.185308,-2.432688,-2.030052\H,0,2.39151,-0.942841,-3.019376\H,0,
 3.627573,-2.211705,-3.042014\C,0,-3.305865,-0.812024,-2.526736\H,0,-3.
 622781,-0.480335,-3.530174\H,0,-2.318534,-1.282973,-2.614999\H,0,-4.02
 9577,-1.561929,-2.187181\C,0,-4.659288,1.003095,-1.433168\H,0,-5.00036
 6,1.37308,-2.415293\H,0,-5.388741,0.25561,-1.095253\H,0,-4.677611,1.85
 4828,-0.736724\C,0,-2.365234,1.487083,-2.258986\H,0,-2.389092,2.438805
 ,-1.710576\H,0,-1.322309,1.164388,-2.356179\H,0,-2.758542,1.681744,-3.
 270545\C,0,-2.923237,-1.658418,2.312524\H,0,-2.185951,-2.395359,1.9665
 45\H,0,-2.408753,-0.907964,2.926963\H,0,-3.645996,-2.180454,2.961255\C
 ,0,-4.776892,-0.114107,1.731119\H,0,-5.362472,0.410039,0.968029\H,0,-5
 .474454,-0.736122,2.317381\H,0,-4.352501,0.632985,2.417059\C,0,-4.3270
 81,-2.163039,0.330299\H,0,-4.882085,-2.821634,1.018632\H,0,-5.039442,-
 1.794447,-0.418833\H,0,-3.566315,-2.775045,-0.178514\O,0,0.02428003,-3
 .49769423,-0.30417583\C,0,0.05929373,-1.04636848,1.76684967\H,0,-0.039
 08297,-3.49978223,-1.27498383\O,0,0.12707673,-1.08763748,2.93618267\\V
 ersion=ES64L-G16RevC.02\State=3-A\HF=-1998.9342958\S2=2.022606\S2-1=0.
 \S2A=2.000285\RMSD=2.813e-09\Dipole=0.856302,6.2874155,0.1495745\Quadr
 upole=31.194185,-17.2444575,-13.9497275,-1.4476776,-8.9155265,2.893675
 8\PG=C01 [X(C24H45N1O3P2Ru1)]\\@
 The archive entry for this job was punched.


 YOU WILL NEVER "FIND" TIME FOR ANYTHING.
 IF YOU WANT TIME, YOU MUST MAKE IT.

                        -- CHARLES BIXTON
 Job cpu time:       0 days  2 hours 36 minutes 23.5 seconds.
 Elapsed time:       0 days  0 hours  7 minutes  7.3 seconds.
 File lengths (MBytes):  RWF=    827 Int=      0 D2E=      0 Chk=     67 Scr=      1
 Normal termination of Gaussian 16 at Thu Jan 16 18:22:00 2025.
