 Entering Gaussian System, Link 0=g16
 Input=A_Ru_Cis_straight_CO_DFT_B3LYP_def2SVP_smd_water_T_3MC_freezedScan_2_9.gjf
 Output=A_Ru_Cis_straight_CO_DFT_B3LYP_def2SVP_smd_water_T_3MC_freezedScan_2_9.log
 Initial command:
 /cluster/apps/gaussian/g16_c02/g16/l1.exe "/beegfs/do57cig/gauss2178646/Gau-483354.inp" -scrdir="/beegfs/do57cig/gauss2178646/"
 Default CPUs for threads: 0-23
 Default is to use a total of  24 processors:
                               24 via shared-memory
                                1 via Linda
 Entering Link 1 = /cluster/apps/gaussian/g16_c02/g16/l1.exe PID=    483355.
  
 Copyright (c) 1988-2021, Gaussian, Inc.  All Rights Reserved.
  
 This is part of the Gaussian(R) 16 program.  It is based on
 the Gaussian(R) 09 system (copyright 2009, Gaussian, Inc.),
 the Gaussian(R) 03 system (copyright 2003, Gaussian, Inc.),
 the Gaussian(R) 98 system (copyright 1998, Gaussian, Inc.),
 the Gaussian(R) 94 system (copyright 1995, Gaussian, Inc.),
 the Gaussian 92(TM) system (copyright 1992, Gaussian, Inc.),
 the Gaussian 90(TM) system (copyright 1990, Gaussian, Inc.),
 the Gaussian 88(TM) system (copyright 1988, Gaussian, Inc.),
 the Gaussian 86(TM) system (copyright 1986, Carnegie Mellon
 University), and the Gaussian 82(TM) system (copyright 1983,
 Carnegie Mellon University). Gaussian is a federally registered
 trademark of Gaussian, Inc.
  
 This software contains proprietary and confidential information,
 including trade secrets, belonging to Gaussian, Inc.
  
 This software is provided under written license and may be
 used, copied, transmitted, or stored only in accord with that
 written license.
  
 The following legend is applicable only to US Government
 contracts under FAR:
  
                    RESTRICTED RIGHTS LEGEND
  
 Use, reproduction and disclosure by the US Government is
 subject to restrictions as set forth in subparagraphs (a)
 and (c) of the Commercial Computer Software - Restricted
 Rights clause in FAR 52.227-19.
  
 Gaussian, Inc.
 340 Quinnipiac St., Bldg. 40, Wallingford CT 06492
  
  
 ---------------------------------------------------------------
 Warning -- This program may not be used in any manner that
 competes with the business of Gaussian, Inc. or will provide
 assistance to any competitor of Gaussian, Inc.  The licensee
 of this program is prohibited from giving any competitor of
 Gaussian, Inc. access to this program.  By using this program,
 the user acknowledges that Gaussian, Inc. is engaged in the
 business of creating and licensing software in the field of
 computational chemistry and represents and warrants to the
 licensee that it is not a competitor of Gaussian, Inc. and that
 it will not use this program in any manner prohibited above.
 ---------------------------------------------------------------
  

 Cite this work as:
 Gaussian 16, Revision C.02,
 M. J. Frisch, G. W. Trucks, H. B. Schlegel, G. E. Scuseria, 
 M. A. Robb, J. R. Cheeseman, G. Scalmani, V. Barone, 
 G. A. Petersson, H. Nakatsuji, X. Li, M. Caricato, A. V. Marenich, 
 J. Bloino, B. G. Janesko, R. Gomperts, B. Mennucci, H. P. Hratchian, 
 J. V. Ortiz, A. F. Izmaylov, J. L. Sonnenberg, D. Williams-Young, 
 F. Ding, F. Lipparini, F. Egidi, J. Goings, B. Peng, A. Petrone, 
 T. Henderson, D. Ranasinghe, V. G. Zakrzewski, J. Gao, N. Rega, 
 G. Zheng, W. Liang, M. Hada, M. Ehara, K. Toyota, R. Fukuda, 
 J. Hasegawa, M. Ishida, T. Nakajima, Y. Honda, O. Kitao, H. Nakai, 
 T. Vreven, K. Throssell, J. A. Montgomery, Jr., J. E. Peralta, 
 F. Ogliaro, M. J. Bearpark, J. J. Heyd, E. N. Brothers, K. N. Kudin, 
 V. N. Staroverov, T. A. Keith, R. Kobayashi, J. Normand, 
 K. Raghavachari, A. P. Rendell, J. C. Burant, S. S. Iyengar, 
 J. Tomasi, M. Cossi, J. M. Millam, M. Klene, C. Adamo, R. Cammi, 
 J. W. Ochterski, R. L. Martin, K. Morokuma, O. Farkas, 
 J. B. Foresman, and D. J. Fox, Gaussian, Inc., Wallingford CT, 2019.
 
 ******************************************
 Gaussian 16:  ES64L-G16RevC.02  7-Dec-2021
                16-Jan-2025 
 ******************************************
 %chk=A_Ru_Cis_straight_CO_DFT_B3LYP_def2SVP_smd_water_T_3MC_freezedScan_2_9.chk
 %Oldchk=A_Ru_Cis_straight_CO_DFT_B3LYP_def2SVP_smd_water_T_3MC_tweaked_geom.chk
 SetSPE:  set environment variable "OMP_PROC_BIND" = "true"
 SetSPE:  set environment variable "OMP_PLACES" = "{0},{1},{2},{3},{4},{5},{6},{7},{8},{9},{10},{11},{12},{13},{14},{15},{16},{17},{18},{19},{20},{21},{22},{23}"
 Copying data from "A_Ru_Cis_straight_CO_DFT_B3LYP_def2SVP_smd_water_T_3MC_tweaked_geom.chk" to current chk file "A_Ru_Cis_straight_CO_DFT_B3LYP_def2SVP_smd_water_T_3MC_freezedScan_2_9.chk"
 IOpt=  2 FromEx=T IUOpen= 4 IOptOp= 5 NList=   0 IFRang= 0 IUIn= 4 IUOut= 2.
 ----------------------------------------------------------------------
 # ub3lyp scrf=(smd,solvent=water) def2svp empiricaldispersion=gd3bj in
 t=ultrafine scf=xqc guess=read
 ----------------------------------------------------------------------
 1/38=1,172=1/1;
 2/12=2,17=6,18=5,40=1/2;
 3/5=43,7=101,11=2,25=1,30=1,70=32201,72=1,74=-5,75=-5,116=2,124=41/1,2,3;
 4/5=1/1;
 5/5=2,8=3,13=1,38=6,53=1/2,8;
 6/7=2,8=2,9=2,10=2,28=1/1;
 99/5=1,9=1/99;
 -----------------------------------------------------------------
 A_Ru_Cis_DFT_B3LYP_def2svp_smd_water_T_Opt_3MLCT_from_3MLCT_trans
 -----------------------------------------------------------------
 Symbolic Z-matrix:
 Charge =  0 Multiplicity = 3
 P                     2.41287  -0.09445  -0.14427 
 N                    -0.01475   1.67011  -0.06783 
 C                     2.18893   1.49713  -1.07451 
 H                     3.11357   2.08778  -1.10925 
 H                     1.95374   1.18983  -2.10723 
 O                    -0.14264  -1.08023  -2.14018 
 P                    -2.42832  -0.08809   0.05285 
 C                     1.05418   2.32638  -0.53428 
 C                     1.11454   3.72489  -0.50488 
 H                     1.99296   4.24178  -0.8947 
 C                     0.04121   4.42916   0.04221 
 H                     0.06246   5.52053   0.08467 
 C                    -1.05745   3.7268    0.53842 
 H                    -1.91242   4.24591   0.9748 
 C                    -1.05312   2.32834   0.45994 
 C                    -2.21296   1.51017   0.96894 
 H                    -3.13223   2.11112   0.97092 
 H                    -2.01158   1.21929   2.01409 
 Ru                   -0.01216  -1.01071  -0.05204 
 H                     0.69263  -1.43269  -2.46465 
 C                    -3.25187   0.41483  -1.59784 
 C                    -3.68924  -1.02651   1.14174 
 C                     3.67297  -1.03308  -1.23516 
 C                     3.23895   0.41126   1.50261 
 C                     2.31678   1.43515   2.19419 
 H                     2.31506   2.40048   1.67103 
 H                     1.27969   1.09286   2.28422 
 H                     2.70225   1.61289   3.21134 
 C                     3.38249  -0.83161   2.40377 
 H                     3.52116  -0.50317   3.44683 
 H                     2.5012   -1.48389   2.37483 
 H                     4.25606  -1.43458   2.13164 
 C                     4.61489   1.06906   1.3283 
 H                     4.96074   1.42544   2.3136 
 H                     5.36867   0.36483   0.95343 
 H                     4.57881   1.94031   0.65747 
 C                     4.74511  -0.11475  -1.84278 
 H                     5.32271   0.43253  -1.08959 
 H                     5.45173  -0.73695  -2.41789 
 H                     4.30851   0.61248  -2.54204 
 C                     4.33071  -2.15353  -0.41795 
 H                     4.87364  -2.82209  -1.10618 
 H                     5.05768  -1.76684   0.3071 
 H                     3.58406  -2.75868   0.11881 
 C                     2.90649  -1.68714  -2.39423 
 H                     2.18531  -2.43269  -2.03005 
 H                     2.39151  -0.94284  -3.01938 
 H                     3.62757  -2.21171  -3.04201 
 C                    -3.30587  -0.81202  -2.52674 
 H                    -3.62278  -0.48034  -3.53017 
 H                    -2.31853  -1.28297  -2.615 
 H                    -4.02958  -1.56193  -2.18718 
 C                    -4.65929   1.0031   -1.43317 
 H                    -5.00037   1.37308  -2.41529 
 H                    -5.38874   0.25561  -1.09525 
 H                    -4.67761   1.85483  -0.73672 
 C                    -2.36523   1.48708  -2.25899 
 H                    -2.38909   2.43881  -1.71058 
 H                    -1.32231   1.16439  -2.35618 
 H                    -2.75854   1.68174  -3.27055 
 C                    -2.92324  -1.65842   2.31252 
 H                    -2.18595  -2.39536   1.96655 
 H                    -2.40875  -0.90796   2.92696 
 H                    -3.646    -2.18045   2.96126 
 C                    -4.77689  -0.11411   1.73112 
 H                    -5.36247   0.41004   0.96803 
 H                    -5.47445  -0.73612   2.31738 
 H                    -4.3525    0.63299   2.41706 
 C                    -4.32708  -2.16304   0.3303 
 H                    -4.88209  -2.82163   1.01863 
 H                    -5.03944  -1.79445  -0.41883 
 H                    -3.56632  -2.77505  -0.17851 
 O                     0.03011  -3.89561  -0.34452 
 C                     0.05929  -1.04637   1.76685 
 H                    -0.03325  -3.8977   -1.31533 
 O                     0.12708  -1.08764   2.93618 
 
 Stoichiometry    C24H45NO3P2Ru(3)
 Framework group  C1[X(C24H45NO3P2Ru)]
 Deg. of freedom   222
 Full point group                 C1      NOp   1
 Largest Abelian subgroup         C1      NOp   1
 Largest concise Abelian subgroup C1      NOp   1
                         Standard orientation:                         
 ---------------------------------------------------------------------
 Center     Atomic      Atomic             Coordinates (Angstroms)
 Number     Number       Type             X           Y           Z
 ---------------------------------------------------------------------
      1         15           0        2.412564   -0.073379   -0.140441
      2          7           0       -0.015709    1.691429   -0.098540
      3          6           0        2.188069    1.499654   -1.101585
      4          1           0        3.112487    2.089862   -1.147809
      5          1           0        1.953032    1.172168   -2.128109
      6          8           0       -0.142498   -1.098880   -2.116819
      7         15           0       -2.428636   -0.064980    0.056363
      8          6           0        1.052991    2.338869   -0.577674
      9          6           0        1.112829    3.737709   -0.575571
     10          1           0        1.991068    4.247223   -0.975377
     11          6           0        0.039213    4.452122   -0.042370
     12          1           0        0.060056    5.544117   -0.021221
     13          6           0       -1.059202    3.759168    0.467425
     14          1           0       -1.914384    4.286376    0.893562
     15          6           0       -1.054350    2.359446    0.416253
     16          6           0       -2.213908    1.550937    0.941084
     17          1           0       -3.133402    2.151466    0.931306
     18          1           0       -2.012454    1.280584    1.991718
     19         44           0       -0.012128   -0.988569   -0.030425
     20          1           0        0.692917   -1.457296   -2.434317
     21          6           0       -3.252304    0.405319   -1.603862
     22          6           0       -3.689248   -0.982437    1.163315
     23          6           0        3.673056   -1.032657   -1.212771
     24          6           0        3.238394    0.464686    1.496276
     25          6           0        2.315812    1.501536    2.167712
     26          1           0        2.313758    2.456466    1.625804
     27          1           0        1.278849    1.160681    2.264373
     28          1           0        2.701175    1.699235    3.181206
     29          6           0        3.382360   -0.760309    2.421525
     30          1           0        3.520870   -0.411517    3.457980
     31          1           0        2.501318   -1.413352    2.405299
     32          1           0        4.256165   -1.368143    2.161249
     33          6           0        4.614093    1.119467    1.309203
     34          1           0        4.959777    1.495144    2.287371
     35          1           0        5.368149    0.408344    0.948173
     36          1           0        4.577714    1.977453    0.621491
     37          6           0        4.744880   -0.125961   -1.838160
     38          1           0        5.322243    0.436138   -1.095776
     39          1           0        5.451750   -0.759000   -2.400997
     40          1           0        4.308034    0.587320   -2.551498
     41          6           0        4.331180   -2.136694   -0.373821
     42          1           0        4.874388   -2.818355   -1.048860
     43          1           0        5.057985   -1.735651    0.343559
     44          1           0        3.584742   -2.731526    0.174621
     45          6           0        2.906871   -1.709493   -2.358873
     46          1           0        2.185949   -2.448064   -1.980239
     47          1           0        2.391634   -0.977734   -2.998446
     48          1           0        3.628171   -2.246336   -2.996275
     49          6           0       -3.305808   -0.839453   -2.508634
     50          1           0       -3.622809   -0.527531   -3.518365
     51          1           0       -2.318298   -1.311667   -2.587657
     52          1           0       -4.029254   -1.582858   -2.154530
     53          6           0       -4.659950    0.996159   -1.450745
     54          1           0       -5.001128    1.346777   -2.439915
     55          1           0       -5.389138    0.255139   -1.098328
     56          1           0       -4.678618    1.861316   -0.771058
     57          6           0       -2.366044    1.464793   -2.285779
     58          1           0       -2.390278    2.427028   -1.756050
     59          1           0       -1.322996    1.140652   -2.376622
     60          1           0       -2.759386    1.639526   -3.300957
     61          6           0       -2.923053   -1.591090    2.346236
     62          1           0       -2.185479   -2.334369    2.014730
     63          1           0       -2.408873   -0.828595    2.945927
     64          1           0       -3.645643   -2.100635    3.005010
     65          6           0       -4.777261   -0.059114    1.734741
     66          1           0       -5.363007    0.449820    0.961548
     67          1           0       -5.474614   -0.669828    2.333010
     68          1           0       -4.353175    0.701383    2.405982
     69          6           0       -4.326632   -2.134828    0.374194
     70          1           0       -4.881417   -2.780070    1.075232
     71          1           0       -5.039101   -1.781194   -0.382012
     72          1           0       -3.565618   -2.756365   -0.122553
     73          8           0        0.031231   -3.878616   -0.266541
     74          6           0        0.059270   -0.988695    1.788814
     75          1           0       -0.032093   -3.899675   -1.237125
     76          8           0        0.127023   -1.007107    2.958732
 ---------------------------------------------------------------------
 Rotational constants (GHZ):           0.1813642           0.1022969           0.0913180
 Standard basis: def2SVP (5D, 7F)
 There are   719 symmetry adapted cartesian basis functions of A   symmetry.
 There are   684 symmetry adapted basis functions of A   symmetry.
   684 basis functions,  1154 primitive gaussians,   719 cartesian basis functions
   134 alpha electrons      132 beta electrons
       nuclear repulsion energy      4426.3426461356 Hartrees.
 NAtoms=   76 NActive=   76 NUniq=   76 SFac= 1.00D+00 NAtFMM=   60 NAOKFM=T Big=T
 Integral buffers will be    131072 words long.
 Raffenetti 2 integral format.
 Two-electron integral symmetry is turned on.
 Nuclear repulsion after empirical dispersion term =     4426.1210217988 Hartrees.
 ------------------------------------------------------------------------------
 Polarizable Continuum Model (PCM)
 =================================
 Model                : PCM.
 Atomic radii         : SMD-Coulomb.
 Polarization charges : Total charges.
 Charge compensation  : None.
 Solution method      : On-the-fly selection.
 Cavity type          : VdW (van der Waals Surface) (Alpha=1.000).
 Cavity algorithm     : GePol (No added spheres)
                        Default sphere list used, NSphG=   76.
                        Lebedev-Laikov grids with approx.  5.0 points / Ang**2.
                        Smoothing algorithm: York/Karplus (Gamma=1.0000).
                        Polarization charges: spherical gaussians, with
                                              point-specific exponents (IZeta= 3).
                        Self-potential: point-specific (ISelfS= 7).
                        Self-field    : sphere-specific E.n sum rule (ISelfD= 2).
 Solvent              : Water, Eps=  78.355300 Eps(inf)=   1.777849
 ------------------------------------------------------------------------------
 ------------------------------------------------------------------------------
 Atomic radii for non-electrostatic terms: SMD-CDS.
 ------------------------------------------------------------------------------
 Nuclear repulsion after PCM non-electrostatic terms =     4426.1403433790 Hartrees.
 One-electron integrals computed using PRISM.
   1 Symmetry operations used in ECPInt.
 ECPInt:  NShTT=   54615 NPrTT=  190596 LenC2=   47773 LenP2D=  112495.
 LDataN:  DoStor=T MaxTD1= 7 Len=  274
 NBasis=   684 RedAO= T EigKep=  4.90D-04  NBF=   684
 NBsUse=   684 1.00D-06 EigRej= -1.00D+00 NBFU=   684
 Defaulting to unpruned grid for atomic number  44.
 Initial guess from the checkpoint file:  "A_Ru_Cis_straight_CO_DFT_B3LYP_def2SVP_smd_water_T_3MC_freezedScan_2_9.chk"
 B after Tr=    -0.000000   -0.000000    0.000000
         Rot=    0.999950    0.009998    0.000024   -0.000226 Ang=   1.15 deg.
 Initial guess <Sx>= 0.0000 <Sy>= 0.0000 <Sz>= 1.0000 <S**2>= 2.0208 S= 1.0069
 Requested convergence on RMS density matrix=1.00D-08 within  32 cycles.
 Requested convergence on MAX density matrix=1.00D-06.
 Requested convergence on             energy=1.00D-06.
 No special actions if energy rises.
 Defaulting to unpruned grid for atomic number  44.
 Defaulting to unpruned grid for atomic number  44.
 Defaulting to unpruned grid for atomic number  44.
 Defaulting to unpruned grid for atomic number  44.
 Defaulting to unpruned grid for atomic number  44.
 Defaulting to unpruned grid for atomic number  44.
 Defaulting to unpruned grid for atomic number  44.
 Defaulting to unpruned grid for atomic number  44.
 Defaulting to unpruned grid for atomic number  44.
 Defaulting to unpruned grid for atomic number  44.
 Defaulting to unpruned grid for atomic number  44.
 Defaulting to unpruned grid for atomic number  44.
 Defaulting to unpruned grid for atomic number  44.
 Defaulting to unpruned grid for atomic number  44.
 Defaulting to unpruned grid for atomic number  44.
 Defaulting to unpruned grid for atomic number  44.
 Defaulting to unpruned grid for atomic number  44.
 Defaulting to unpruned grid for atomic number  44.
 Defaulting to unpruned grid for atomic number  44.
 Defaulting to unpruned grid for atomic number  44.
 Defaulting to unpruned grid for atomic number  44.
 Defaulting to unpruned grid for atomic number  44.
 Defaulting to unpruned grid for atomic number  44.
 Defaulting to unpruned grid for atomic number  44.
 Inv3:  Mode=1 IEnd=    68087088.
 Iteration    1 A*A^-1 deviation from unit magnitude is 3.33D-15 for   1450.
 Iteration    1 A*A^-1 deviation from orthogonality  is 3.33D-15 for   4338   1530.
 Iteration    1 A^-1*A deviation from unit magnitude is 3.11D-15 for    253.
 Iteration    1 A^-1*A deviation from orthogonality  is 5.23D-15 for   3627   2802.
 Restarting incremental Fock formation.
 Error on total polarization charges =  0.07719
 SCF Done:  E(UB3LYP) =  -1998.91815332     A.U. after   21 cycles
            NFock= 21  Conv=0.33D-08     -V/T= 2.0404
 <Sx>= 0.0000 <Sy>= 0.0000 <Sz>= 1.0000 <S**2>= 2.0230 S= 1.0076
 <L.S>=  0.00000000000    
 SMD-CDS (non-electrostatic) energy       (kcal/mol) =      12.12
 (included in total energy above)
 Annihilation of the first spin contaminant:
 S**2 before annihilation     2.0230,   after     2.0003
 QCSCF skips out because SCF is already converged.

 **********************************************************************

            Population analysis using the SCF Density.

 **********************************************************************

 Orbital symmetries:
 Alpha Orbitals:
       Occupied  (A) (A) (A) (A) (A) (A) (A) (A) (A) (A) (A) (A)
                 (A) (A) (A) (A) (A) (A) (A) (A) (A) (A) (A) (A)
                 (A) (A) (A) (A) (A) (A) (A) (A) (A) (A) (A) (A)
                 (A) (A) (A) (A) (A) (A) (A) (A) (A) (A) (A) (A)
                 (A) (A) (A) (A) (A) (A) (A) (A) (A) (A) (A) (A)
                 (A) (A) (A) (A) (A) (A) (A) (A) (A) (A) (A) (A)
                 (A) (A) (A) (A) (A) (A) (A) (A) (A) (A) (A) (A)
                 (A) (A) (A) (A) (A) (A) (A) (A) (A) (A) (A) (A)
                 (A) (A) (A) (A) (A) (A) (A) (A) (A) (A) (A) (A)
                 (A) (A) (A) (A) (A) (A) (A) (A) (A) (A) (A) (A)
                 (A) (A) (A) (A) (A) (A) (A) (A) (A) (A) (A) (A)
                 (A) (A)
       Virtual   (A) (A) (A) (A) (A) (A) (A) (A) (A) (A) (A) (A)
                 (A) (A) (A) (A) (A) (A) (A) (A) (A) (A) (A) (A)
                 (A) (A) (A) (A) (A) (A) (A) (A) (A) (A) (A) (A)
                 (A) (A) (A) (A) (A) (A) (A) (A) (A) (A) (A) (A)
                 (A) (A) (A) (A) (A) (A) (A) (A) (A) (A) (A) (A)
                 (A) (A) (A) (A) (A) (A) (A) (A) (A) (A) (A) (A)
                 (A) (A) (A) (A) (A) (A) (A) (A) (A) (A) (A) (A)
                 (A) (A) (A) (A) (A) (A) (A) (A) (A) (A) (A) (A)
                 (A) (A) (A) (A) (A) (A) (A) (A) (A) (A) (A) (A)
                 (A) (A) (A) (A) (A) (A) (A) (A) (A) (A) (A) (A)
                 (A) (A) (A) (A) (A) (A) (A) (A) (A) (A) (A) (A)
                 (A) (A) (A) (A) (A) (A) (A) (A) (A) (A) (A) (A)
                 (A) (A) (A) (A) (A) (A) (A) (A) (A) (A) (A) (A)
                 (A) (A) (A) (A) (A) (A) (A) (A) (A) (A) (A) (A)
                 (A) (A) (A) (A) (A) (A) (A) (A) (A) (A) (A) (A)
                 (A) (A) (A) (A) (A) (A) (A) (A) (A) (A) (A) (A)
                 (A) (A) (A) (A) (A) (A) (A) (A) (A) (A) (A) (A)
                 (A) (A) (A) (A) (A) (A) (A) (A) (A) (A) (A) (A)
                 (A) (A) (A) (A) (A) (A) (A) (A) (A) (A) (A) (A)
                 (A) (A) (A) (A) (A) (A) (A) (A) (A) (A) (A) (A)
                 (A) (A) (A) (A) (A) (A) (A) (A) (A) (A) (A) (A)
                 (A) (A) (A) (A) (A) (A) (A) (A) (A) (A) (A) (A)
                 (A) (A) (A) (A) (A) (A) (A) (A) (A) (A) (A) (A)
                 (A) (A) (A) (A) (A) (A) (A) (A) (A) (A) (A) (A)
                 (A) (A) (A) (A) (A) (A) (A) (A) (A) (A) (A) (A)
                 (A) (A) (A) (A) (A) (A) (A) (A) (A) (A) (A) (A)
                 (A) (A) (A) (A) (A) (A) (A) (A) (A) (A) (A) (A)
                 (A) (A) (A) (A) (A) (A) (A) (A) (A) (A) (A) (A)
                 (A) (A) (A) (A) (A) (A) (A) (A) (A) (A) (A) (A)
                 (A) (A) (A) (A) (A) (A) (A) (A) (A) (A) (A) (A)
                 (A) (A) (A) (A) (A) (A) (A) (A) (A) (A) (A) (A)
                 (A) (A) (A) (A) (A) (A) (A) (A) (A) (A) (A) (A)
                 (A) (A) (A) (A) (A) (A) (A) (A) (A) (A) (A) (A)
                 (A) (A) (A) (A) (A) (A) (A) (A) (A) (A) (A) (A)
                 (A) (A) (A) (A) (A) (A) (A) (A) (A) (A) (A) (A)
                 (A) (A) (A) (A) (A) (A) (A) (A) (A) (A) (A) (A)
                 (A) (A) (A) (A) (A) (A) (A) (A) (A) (A) (A) (A)
                 (A) (A) (A) (A) (A) (A) (A) (A) (A) (A) (A) (A)
                 (A) (A) (A) (A) (A) (A) (A) (A) (A) (A) (A) (A)
                 (A) (A) (A) (A) (A) (A) (A) (A) (A) (A) (A) (A)
                 (A) (A) (A) (A) (A) (A) (A) (A) (A) (A) (A) (A)
                 (A) (A) (A) (A) (A) (A) (A) (A) (A) (A) (A) (A)
                 (A) (A) (A) (A) (A) (A) (A) (A) (A) (A) (A) (A)
                 (A) (A) (A) (A) (A) (A) (A) (A) (A) (A) (A) (A)
                 (A) (A) (A) (A) (A) (A) (A) (A) (A) (A) (A) (A)
                 (A) (A) (A) (A) (A) (A) (A) (A) (A) (A)
 Beta  Orbitals:
       Occupied  (A) (A) (A) (A) (A) (A) (A) (A) (A) (A) (A) (A)
                 (A) (A) (A) (A) (A) (A) (A) (A) (A) (A) (A) (A)
                 (A) (A) (A) (A) (A) (A) (A) (A) (A) (A) (A) (A)
                 (A) (A) (A) (A) (A) (A) (A) (A) (A) (A) (A) (A)
                 (A) (A) (A) (A) (A) (A) (A) (A) (A) (A) (A) (A)
                 (A) (A) (A) (A) (A) (A) (A) (A) (A) (A) (A) (A)
                 (A) (A) (A) (A) (A) (A) (A) (A) (A) (A) (A) (A)
                 (A) (A) (A) (A) (A) (A) (A) (A) (A) (A) (A) (A)
                 (A) (A) (A) (A) (A) (A) (A) (A) (A) (A) (A) (A)
                 (A) (A) (A) (A) (A) (A) (A) (A) (A) (A) (A) (A)
                 (A) (A) (A) (A) (A) (A) (A) (A) (A) (A) (A) (A)
       Virtual   (A) (A) (A) (A) (A) (A) (A) (A) (A) (A) (A) (A)
                 (A) (A) (A) (A) (A) (A) (A) (A) (A) (A) (A) (A)
                 (A) (A) (A) (A) (A) (A) (A) (A) (A) (A) (A) (A)
                 (A) (A) (A) (A) (A) (A) (A) (A) (A) (A) (A) (A)
                 (A) (A) (A) (A) (A) (A) (A) (A) (A) (A) (A) (A)
                 (A) (A) (A) (A) (A) (A) (A) (A) (A) (A) (A) (A)
                 (A) (A) (A) (A) (A) (A) (A) (A) (A) (A) (A) (A)
                 (A) (A) (A) (A) (A) (A) (A) (A) (A) (A) (A) (A)
                 (A) (A) (A) (A) (A) (A) (A) (A) (A) (A) (A) (A)
                 (A) (A) (A) (A) (A) (A) (A) (A) (A) (A) (A) (A)
                 (A) (A) (A) (A) (A) (A) (A) (A) (A) (A) (A) (A)
                 (A) (A) (A) (A) (A) (A) (A) (A) (A) (A) (A) (A)
                 (A) (A) (A) (A) (A) (A) (A) (A) (A) (A) (A) (A)
                 (A) (A) (A) (A) (A) (A) (A) (A) (A) (A) (A) (A)
                 (A) (A) (A) (A) (A) (A) (A) (A) (A) (A) (A) (A)
                 (A) (A) (A) (A) (A) (A) (A) (A) (A) (A) (A) (A)
                 (A) (A) (A) (A) (A) (A) (A) (A) (A) (A) (A) (A)
                 (A) (A) (A) (A) (A) (A) (A) (A) (A) (A) (A) (A)
                 (A) (A) (A) (A) (A) (A) (A) (A) (A) (A) (A) (A)
                 (A) (A) (A) (A) (A) (A) (A) (A) (A) (A) (A) (A)
                 (A) (A) (A) (A) (A) (A) (A) (A) (A) (A) (A) (A)
                 (A) (A) (A) (A) (A) (A) (A) (A) (A) (A) (A) (A)
                 (A) (A) (A) (A) (A) (A) (A) (A) (A) (A) (A) (A)
                 (A) (A) (A) (A) (A) (A) (A) (A) (A) (A) (A) (A)
                 (A) (A) (A) (A) (A) (A) (A) (A) (A) (A) (A) (A)
                 (A) (A) (A) (A) (A) (A) (A) (A) (A) (A) (A) (A)
                 (A) (A) (A) (A) (A) (A) (A) (A) (A) (A) (A) (A)
                 (A) (A) (A) (A) (A) (A) (A) (A) (A) (A) (A) (A)
                 (A) (A) (A) (A) (A) (A) (A) (A) (A) (A) (A) (A)
                 (A) (A) (A) (A) (A) (A) (A) (A) (A) (A) (A) (A)
                 (A) (A) (A) (A) (A) (A) (A) (A) (A) (A) (A) (A)
                 (A) (A) (A) (A) (A) (A) (A) (A) (A) (A) (A) (A)
                 (A) (A) (A) (A) (A) (A) (A) (A) (A) (A) (A) (A)
                 (A) (A) (A) (A) (A) (A) (A) (A) (A) (A) (A) (A)
                 (A) (A) (A) (A) (A) (A) (A) (A) (A) (A) (A) (A)
                 (A) (A) (A) (A) (A) (A) (A) (A) (A) (A) (A) (A)
                 (A) (A) (A) (A) (A) (A) (A) (A) (A) (A) (A) (A)
                 (A) (A) (A) (A) (A) (A) (A) (A) (A) (A) (A) (A)
                 (A) (A) (A) (A) (A) (A) (A) (A) (A) (A) (A) (A)
                 (A) (A) (A) (A) (A) (A) (A) (A) (A) (A) (A) (A)
                 (A) (A) (A) (A) (A) (A) (A) (A) (A) (A) (A) (A)
                 (A) (A) (A) (A) (A) (A) (A) (A) (A) (A) (A) (A)
                 (A) (A) (A) (A) (A) (A) (A) (A) (A) (A) (A) (A)
                 (A) (A) (A) (A) (A) (A) (A) (A) (A) (A) (A) (A)
                 (A) (A) (A) (A) (A) (A) (A) (A) (A) (A) (A) (A)
                 (A) (A) (A) (A) (A) (A) (A) (A) (A) (A) (A) (A)
 The electronic state is 3-A.
 Alpha  occ. eigenvalues --  -77.08759 -77.08449 -19.17921 -19.06780 -19.03805
 Alpha  occ. eigenvalues --  -14.34275 -10.26986 -10.24160 -10.24124 -10.21042
 Alpha  occ. eigenvalues --  -10.20960 -10.20890 -10.20759 -10.20640 -10.19753
 Alpha  occ. eigenvalues --  -10.19748 -10.19704 -10.19658 -10.17681 -10.17535
 Alpha  occ. eigenvalues --  -10.17490 -10.17461 -10.17404 -10.17393 -10.17341
 Alpha  occ. eigenvalues --  -10.17331 -10.17187 -10.17174 -10.17032 -10.16528
 Alpha  occ. eigenvalues --   -6.57913  -6.57616  -4.74515  -4.74457  -4.74263
 Alpha  occ. eigenvalues --   -4.74220  -4.74158  -4.73964  -3.06327  -1.90977
 Alpha  occ. eigenvalues --   -1.90923  -1.88925  -1.08117  -0.95664  -0.88522
 Alpha  occ. eigenvalues --   -0.84031  -0.82486  -0.81912  -0.80027  -0.79989
 Alpha  occ. eigenvalues --   -0.79721  -0.79463  -0.73842  -0.70173  -0.68070
 Alpha  occ. eigenvalues --   -0.67948  -0.67868  -0.67586  -0.67106  -0.67029
 Alpha  occ. eigenvalues --   -0.66811  -0.66693  -0.63997  -0.63123  -0.59867
 Alpha  occ. eigenvalues --   -0.59565  -0.54535  -0.54377  -0.54142  -0.51698
 Alpha  occ. eigenvalues --   -0.51366  -0.50327  -0.49613  -0.47238  -0.47028
 Alpha  occ. eigenvalues --   -0.45908  -0.45544  -0.45134  -0.44830  -0.44706
 Alpha  occ. eigenvalues --   -0.44350  -0.44067  -0.43893  -0.43301  -0.43174
 Alpha  occ. eigenvalues --   -0.42898  -0.42689  -0.42327  -0.42171  -0.41710
 Alpha  occ. eigenvalues --   -0.41524  -0.41294  -0.40546  -0.40136  -0.39174
 Alpha  occ. eigenvalues --   -0.38929  -0.38786  -0.37843  -0.37521  -0.37331
 Alpha  occ. eigenvalues --   -0.37302  -0.37184  -0.37036  -0.36812  -0.36305
 Alpha  occ. eigenvalues --   -0.35943  -0.35566  -0.35546  -0.35347  -0.34953
 Alpha  occ. eigenvalues --   -0.34567  -0.34255  -0.33777  -0.33097  -0.32797
 Alpha  occ. eigenvalues --   -0.32774  -0.32405  -0.32253  -0.31700  -0.31291
 Alpha  occ. eigenvalues --   -0.31104  -0.30330  -0.29589  -0.29421  -0.29057
 Alpha  occ. eigenvalues --   -0.28679  -0.28176  -0.25529  -0.25196  -0.24242
 Alpha  occ. eigenvalues --   -0.23085  -0.21965  -0.21062  -0.18841
 Alpha virt. eigenvalues --   -0.04324  -0.03894  -0.02486   0.00082   0.01031
 Alpha virt. eigenvalues --    0.04240   0.04377   0.05270   0.05823   0.06184
 Alpha virt. eigenvalues --    0.07232   0.07351   0.07839   0.08129   0.08387
 Alpha virt. eigenvalues --    0.08555   0.09103   0.09629   0.10015   0.10298
 Alpha virt. eigenvalues --    0.10551   0.10831   0.11304   0.11832   0.12136
 Alpha virt. eigenvalues --    0.12283   0.12517   0.13297   0.13489   0.13533
 Alpha virt. eigenvalues --    0.13813   0.13939   0.14035   0.14759   0.14864
 Alpha virt. eigenvalues --    0.15178   0.15382   0.15943   0.16160   0.16538
 Alpha virt. eigenvalues --    0.16738   0.16834   0.17465   0.17653   0.17841
 Alpha virt. eigenvalues --    0.17951   0.18448   0.18734   0.18997   0.19556
 Alpha virt. eigenvalues --    0.19997   0.20123   0.20441   0.20678   0.20757
 Alpha virt. eigenvalues --    0.21029   0.21262   0.21433   0.21686   0.21979
 Alpha virt. eigenvalues --    0.22579   0.22945   0.23114   0.24166   0.24359
 Alpha virt. eigenvalues --    0.24751   0.25011   0.25291   0.25647   0.26107
 Alpha virt. eigenvalues --    0.26514   0.27401   0.27808   0.28614   0.29684
 Alpha virt. eigenvalues --    0.30650   0.30988   0.31336   0.31629   0.34324
 Alpha virt. eigenvalues --    0.35434   0.35704   0.36467   0.37644   0.38244
 Alpha virt. eigenvalues --    0.39389   0.39758   0.40346   0.40556   0.40749
 Alpha virt. eigenvalues --    0.41157   0.41473   0.42339   0.42976   0.43232
 Alpha virt. eigenvalues --    0.43502   0.43979   0.44754   0.45349   0.45681
 Alpha virt. eigenvalues --    0.46369   0.46701   0.47551   0.48216   0.48945
 Alpha virt. eigenvalues --    0.49115   0.49839   0.51311   0.51671   0.52367
 Alpha virt. eigenvalues --    0.52620   0.53178   0.53334   0.53832   0.53978
 Alpha virt. eigenvalues --    0.54424   0.55341   0.56195   0.56443   0.57306
 Alpha virt. eigenvalues --    0.57954   0.58030   0.58352   0.58915   0.59333
 Alpha virt. eigenvalues --    0.59518   0.59988   0.60417   0.61077   0.61253
 Alpha virt. eigenvalues --    0.61940   0.62336   0.62816   0.62938   0.63227
 Alpha virt. eigenvalues --    0.63540   0.63643   0.64419   0.64496   0.64780
 Alpha virt. eigenvalues --    0.65000   0.65270   0.65529   0.65723   0.65913
 Alpha virt. eigenvalues --    0.66093   0.66308   0.66745   0.66848   0.67117
 Alpha virt. eigenvalues --    0.67529   0.67760   0.67849   0.68237   0.68427
 Alpha virt. eigenvalues --    0.68639   0.68781   0.69103   0.69226   0.69301
 Alpha virt. eigenvalues --    0.69729   0.70416   0.70486   0.70738   0.70848
 Alpha virt. eigenvalues --    0.71024   0.71253   0.71385   0.72197   0.72317
 Alpha virt. eigenvalues --    0.72535   0.72802   0.72977   0.73203   0.73403
 Alpha virt. eigenvalues --    0.73477   0.73832   0.74282   0.74534   0.74698
 Alpha virt. eigenvalues --    0.75160   0.75518   0.75878   0.76153   0.76570
 Alpha virt. eigenvalues --    0.76862   0.77426   0.77639   0.78073   0.78428
 Alpha virt. eigenvalues --    0.78606   0.78954   0.79159   0.79968   0.80461
 Alpha virt. eigenvalues --    0.80516   0.80996   0.81532   0.81667   0.81995
 Alpha virt. eigenvalues --    0.82400   0.83090   0.83307   0.84293   0.84669
 Alpha virt. eigenvalues --    0.85207   0.85723   0.86336   0.87174   0.87598
 Alpha virt. eigenvalues --    0.88390   0.88713   0.89394   0.89822   0.90412
 Alpha virt. eigenvalues --    0.91265   0.91665   0.92798   0.94082   0.94853
 Alpha virt. eigenvalues --    0.95693   0.95802   0.97534   0.99134   0.99635
 Alpha virt. eigenvalues --    1.01656   1.01871   1.02648   1.03193   1.03516
 Alpha virt. eigenvalues --    1.04594   1.05153   1.05923   1.06550   1.07047
 Alpha virt. eigenvalues --    1.07520   1.08273   1.08471   1.09597   1.10945
 Alpha virt. eigenvalues --    1.11706   1.12140   1.12899   1.13761   1.14589
 Alpha virt. eigenvalues --    1.15918   1.16459   1.16559   1.17514   1.18099
 Alpha virt. eigenvalues --    1.18719   1.19356   1.19920   1.20718   1.21278
 Alpha virt. eigenvalues --    1.22132   1.23060   1.24004   1.24502   1.24520
 Alpha virt. eigenvalues --    1.24977   1.25760   1.26585   1.27119   1.28118
 Alpha virt. eigenvalues --    1.28303   1.29369   1.30107   1.30740   1.31275
 Alpha virt. eigenvalues --    1.31869   1.33060   1.34312   1.36576   1.37264
 Alpha virt. eigenvalues --    1.37766   1.39278   1.40988   1.42606   1.44057
 Alpha virt. eigenvalues --    1.44936   1.47901   1.48247   1.49283   1.49596
 Alpha virt. eigenvalues --    1.50523   1.51250   1.51824   1.52279   1.53008
 Alpha virt. eigenvalues --    1.53454   1.54112   1.54218   1.54774   1.55324
 Alpha virt. eigenvalues --    1.55755   1.56197   1.56647   1.56951   1.57638
 Alpha virt. eigenvalues --    1.57729   1.58401   1.58464   1.58744   1.59261
 Alpha virt. eigenvalues --    1.59342   1.59979   1.60695   1.60951   1.61245
 Alpha virt. eigenvalues --    1.62218   1.62482   1.63445   1.63598   1.64528
 Alpha virt. eigenvalues --    1.65137   1.65473   1.65817   1.65953   1.66288
 Alpha virt. eigenvalues --    1.67675   1.68178   1.68596   1.69212   1.70634
 Alpha virt. eigenvalues --    1.70982   1.72158   1.72592   1.73794   1.74533
 Alpha virt. eigenvalues --    1.76066   1.76482   1.76853   1.77043   1.77315
 Alpha virt. eigenvalues --    1.77985   1.78454   1.78791   1.78928   1.79166
 Alpha virt. eigenvalues --    1.79434   1.80010   1.80067   1.80832   1.81065
 Alpha virt. eigenvalues --    1.81461   1.81860   1.82198   1.82632   1.83281
 Alpha virt. eigenvalues --    1.83644   1.84158   1.84326   1.84488   1.85065
 Alpha virt. eigenvalues --    1.85178   1.85657   1.85961   1.86217   1.86854
 Alpha virt. eigenvalues --    1.87207   1.87496   1.87587   1.87944   1.88584
 Alpha virt. eigenvalues --    1.89040   1.90037   1.90448   1.90902   1.91458
 Alpha virt. eigenvalues --    1.92435   1.92602   1.92997   1.93197   1.93522
 Alpha virt. eigenvalues --    1.93685   1.93929   1.94190   1.94233   1.94618
 Alpha virt. eigenvalues --    1.95270   1.95680   1.95762   1.95995   1.96824
 Alpha virt. eigenvalues --    1.97177   1.98054   1.98307   1.98729   1.99054
 Alpha virt. eigenvalues --    1.99728   2.00433   2.00737   2.00936   2.01316
 Alpha virt. eigenvalues --    2.01847   2.02319   2.02433   2.03376   2.03590
 Alpha virt. eigenvalues --    2.04069   2.04692   2.06748   2.07952   2.09676
 Alpha virt. eigenvalues --    2.10629   2.11805   2.14825   2.15701   2.16009
 Alpha virt. eigenvalues --    2.16590   2.16717   2.17537   2.17643   2.18226
 Alpha virt. eigenvalues --    2.18479   2.18829   2.19015   2.19532   2.19903
 Alpha virt. eigenvalues --    2.20307   2.20711   2.21309   2.22110   2.22529
 Alpha virt. eigenvalues --    2.22591   2.23152   2.23949   2.24139   2.24775
 Alpha virt. eigenvalues --    2.24907   2.26918   2.27681   2.28859   2.29389
 Alpha virt. eigenvalues --    2.29834   2.34878   2.37878   2.38319   2.38797
 Alpha virt. eigenvalues --    2.39158   2.39829   2.40451   2.40733   2.41218
 Alpha virt. eigenvalues --    2.41984   2.42096   2.42353   2.42880   2.43120
 Alpha virt. eigenvalues --    2.44292   2.44712   2.45783   2.46888   2.46979
 Alpha virt. eigenvalues --    2.47545   2.48857   2.50110   2.51152   2.52098
 Alpha virt. eigenvalues --    2.55159   2.55463   2.55853   2.56171   2.56323
 Alpha virt. eigenvalues --    2.56384   2.56567   2.57401   2.58153   2.61236
 Alpha virt. eigenvalues --    2.61999   2.62318   2.62707   2.62844   2.63377
 Alpha virt. eigenvalues --    2.63603   2.63741   2.63922   2.64148   2.64668
 Alpha virt. eigenvalues --    2.64801   2.65162   2.65754   2.65785   2.67460
 Alpha virt. eigenvalues --    2.69090   2.72039   2.72493   2.72891   2.73187
 Alpha virt. eigenvalues --    2.73731   2.74070   2.74300   2.75473   2.78902
 Alpha virt. eigenvalues --    2.80318   2.81499   2.84081   2.86114   2.87025
 Alpha virt. eigenvalues --    2.87390   2.87642   2.88357   2.88810   2.89066
 Alpha virt. eigenvalues --    2.89191   2.89698   2.90806   2.91244   2.92804
 Alpha virt. eigenvalues --    2.92976   2.93475   2.94310   2.94828   2.95663
 Alpha virt. eigenvalues --    2.95783   2.96255   2.96441   2.96903   2.97023
 Alpha virt. eigenvalues --    2.97436   2.98124   2.98827   2.99596   2.99812
 Alpha virt. eigenvalues --    3.02023   3.02267   3.03875   3.04930   3.05518
 Alpha virt. eigenvalues --    3.05875   3.06256   3.06849   3.07606   3.08500
 Alpha virt. eigenvalues --    3.08804   3.09535   3.09902   3.11064   3.11946
 Alpha virt. eigenvalues --    3.12442   3.14171   3.18702   3.19851   3.36135
 Alpha virt. eigenvalues --    3.61818   3.72754   3.79481   3.86939  45.24661
  Beta  occ. eigenvalues --  -77.08729 -77.08417 -19.18049 -19.06768 -19.03469
  Beta  occ. eigenvalues --  -14.33958 -10.27148 -10.24172 -10.24136 -10.21009
  Beta  occ. eigenvalues --  -10.20954 -10.20898 -10.20734 -10.20629 -10.19738
  Beta  occ. eigenvalues --  -10.19733 -10.19704 -10.19656 -10.17681 -10.17533
  Beta  occ. eigenvalues --  -10.17490 -10.17454 -10.17404 -10.17388 -10.17335
  Beta  occ. eigenvalues --  -10.17333 -10.17185 -10.17173 -10.17033 -10.16528
  Beta  occ. eigenvalues --   -6.57877  -6.57577  -4.74490  -4.74436  -4.74193
  Beta  occ. eigenvalues --   -4.74187  -4.74136  -4.73880  -3.00235  -1.85963
  Beta  occ. eigenvalues --   -1.83196  -1.81407  -1.08343  -0.95393  -0.88483
  Beta  occ. eigenvalues --   -0.83279  -0.82440  -0.81859  -0.79985  -0.79914
  Beta  occ. eigenvalues --   -0.79699  -0.79441  -0.73793  -0.70132  -0.68054
  Beta  occ. eigenvalues --   -0.67942  -0.67851  -0.67583  -0.67102  -0.67019
  Beta  occ. eigenvalues --   -0.66800  -0.66692  -0.63875  -0.63014  -0.59763
  Beta  occ. eigenvalues --   -0.59445  -0.54683  -0.54415  -0.54108  -0.51645
  Beta  occ. eigenvalues --   -0.51285  -0.50232  -0.49563  -0.47180  -0.47014
  Beta  occ. eigenvalues --   -0.45804  -0.45480  -0.45001  -0.44781  -0.44682
  Beta  occ. eigenvalues --   -0.44347  -0.44037  -0.43880  -0.43386  -0.43175
  Beta  occ. eigenvalues --   -0.42869  -0.42719  -0.42340  -0.42162  -0.41760
  Beta  occ. eigenvalues --   -0.41531  -0.41289  -0.40255  -0.40082  -0.39149
  Beta  occ. eigenvalues --   -0.38900  -0.38757  -0.37827  -0.37504  -0.37308
  Beta  occ. eigenvalues --   -0.37286  -0.37180  -0.37006  -0.36777  -0.36295
  Beta  occ. eigenvalues --   -0.35915  -0.35559  -0.35521  -0.35029  -0.34822
  Beta  occ. eigenvalues --   -0.34519  -0.34088  -0.33687  -0.33084  -0.32766
  Beta  occ. eigenvalues --   -0.32559  -0.32348  -0.32170  -0.31588  -0.30553
  Beta  occ. eigenvalues --   -0.29656  -0.29354  -0.29036  -0.28063  -0.27738
  Beta  occ. eigenvalues --   -0.27529  -0.26292  -0.25379  -0.23154  -0.21956
  Beta  occ. eigenvalues --   -0.21544  -0.20454
  Beta virt. eigenvalues --   -0.09860  -0.06884  -0.03887  -0.02491  -0.01734
  Beta virt. eigenvalues --    0.00734   0.01367   0.04339   0.04734   0.05607
  Beta virt. eigenvalues --    0.06182   0.06350   0.07281   0.07489   0.07914
  Beta virt. eigenvalues --    0.08175   0.08506   0.08616   0.09182   0.09658
  Beta virt. eigenvalues --    0.10045   0.10341   0.10584   0.10882   0.11329
  Beta virt. eigenvalues --    0.11846   0.12205   0.12308   0.12625   0.13361
  Beta virt. eigenvalues --    0.13563   0.13600   0.13863   0.13964   0.14078
  Beta virt. eigenvalues --    0.14810   0.14884   0.15201   0.15441   0.16031
  Beta virt. eigenvalues --    0.16236   0.16594   0.16849   0.16889   0.17489
  Beta virt. eigenvalues --    0.17675   0.17886   0.18015   0.18491   0.18755
  Beta virt. eigenvalues --    0.19091   0.19688   0.20044   0.20175   0.20570
  Beta virt. eigenvalues --    0.20762   0.20860   0.21092   0.21287   0.21490
  Beta virt. eigenvalues --    0.21730   0.22048   0.22613   0.23020   0.23351
  Beta virt. eigenvalues --    0.24252   0.24480   0.24826   0.25113   0.25568
  Beta virt. eigenvalues --    0.25705   0.26152   0.26636   0.27480   0.27901
  Beta virt. eigenvalues --    0.28788   0.29960   0.30795   0.31136   0.31588
  Beta virt. eigenvalues --    0.31977   0.34489   0.35669   0.35927   0.36764
  Beta virt. eigenvalues --    0.37868   0.38688   0.39444   0.39777   0.40448
  Beta virt. eigenvalues --    0.40609   0.40851   0.41273   0.41575   0.42508
  Beta virt. eigenvalues --    0.43073   0.43334   0.43653   0.44079   0.44844
  Beta virt. eigenvalues --    0.45484   0.45729   0.46447   0.46840   0.47810
  Beta virt. eigenvalues --    0.48489   0.49042   0.49354   0.49973   0.51527
  Beta virt. eigenvalues --    0.51849   0.52466   0.52807   0.53261   0.53401
  Beta virt. eigenvalues --    0.54010   0.54146   0.54498   0.55438   0.56255
  Beta virt. eigenvalues --    0.56565   0.57398   0.58105   0.58180   0.58481
  Beta virt. eigenvalues --    0.58996   0.59417   0.59706   0.60031   0.60464
  Beta virt. eigenvalues --    0.61163   0.61307   0.62029   0.62566   0.62910
  Beta virt. eigenvalues --    0.62978   0.63296   0.63607   0.63721   0.64500
  Beta virt. eigenvalues --    0.64556   0.64803   0.65077   0.65308   0.65614
  Beta virt. eigenvalues --    0.65773   0.65950   0.66145   0.66354   0.66778
  Beta virt. eigenvalues --    0.66951   0.67149   0.67576   0.67821   0.68003
  Beta virt. eigenvalues --    0.68336   0.68450   0.68691   0.68835   0.69162
  Beta virt. eigenvalues --    0.69275   0.69364   0.69771   0.70449   0.70529
  Beta virt. eigenvalues --    0.70761   0.70944   0.71081   0.71291   0.71430
  Beta virt. eigenvalues --    0.72250   0.72420   0.72579   0.72851   0.73007
  Beta virt. eigenvalues --    0.73255   0.73438   0.73538   0.73907   0.74346
  Beta virt. eigenvalues --    0.74643   0.74815   0.75189   0.75632   0.75931
  Beta virt. eigenvalues --    0.76234   0.76657   0.76982   0.77518   0.77733
  Beta virt. eigenvalues --    0.78126   0.78481   0.78691   0.79015   0.79292
  Beta virt. eigenvalues --    0.80077   0.80543   0.80653   0.81059   0.81578
  Beta virt. eigenvalues --    0.81779   0.82064   0.82447   0.83125   0.83450
  Beta virt. eigenvalues --    0.84343   0.84796   0.85270   0.85860   0.86467
  Beta virt. eigenvalues --    0.87293   0.87774   0.88616   0.88791   0.89552
  Beta virt. eigenvalues --    0.89939   0.90575   0.91307   0.91765   0.92894
  Beta virt. eigenvalues --    0.94226   0.94938   0.95768   0.96005   0.97714
  Beta virt. eigenvalues --    0.99231   1.00092   1.01807   1.02080   1.02735
  Beta virt. eigenvalues --    1.03382   1.03725   1.04768   1.05212   1.06046
  Beta virt. eigenvalues --    1.06813   1.07241   1.07602   1.08388   1.08662
  Beta virt. eigenvalues --    1.09765   1.11032   1.11797   1.12259   1.12956
  Beta virt. eigenvalues --    1.13881   1.14775   1.16016   1.16506   1.16618
  Beta virt. eigenvalues --    1.17721   1.18198   1.18820   1.19416   1.19994
  Beta virt. eigenvalues --    1.20776   1.21351   1.22180   1.23141   1.24066
  Beta virt. eigenvalues --    1.24543   1.24594   1.25029   1.25817   1.26772
  Beta virt. eigenvalues --    1.27170   1.28210   1.28431   1.29480   1.30222
  Beta virt. eigenvalues --    1.30862   1.31313   1.31913   1.33148   1.34394
  Beta virt. eigenvalues --    1.36766   1.37349   1.37927   1.39467   1.41292
  Beta virt. eigenvalues --    1.42887   1.44140   1.45197   1.48107   1.48346
  Beta virt. eigenvalues --    1.49375   1.49635   1.50639   1.51348   1.51907
  Beta virt. eigenvalues --    1.52334   1.53066   1.53504   1.54144   1.54294
  Beta virt. eigenvalues --    1.54790   1.55402   1.55801   1.56235   1.56673
  Beta virt. eigenvalues --    1.57004   1.57694   1.57916   1.58438   1.58515
  Beta virt. eigenvalues --    1.58775   1.59302   1.59368   1.60019   1.60753
  Beta virt. eigenvalues --    1.61180   1.61341   1.62440   1.62592   1.63569
  Beta virt. eigenvalues --    1.63742   1.64620   1.65260   1.65604   1.65966
  Beta virt. eigenvalues --    1.66170   1.66428   1.67828   1.68586   1.69000
  Beta virt. eigenvalues --    1.69583   1.70720   1.71016   1.72305   1.72627
  Beta virt. eigenvalues --    1.73872   1.74593   1.76158   1.76609   1.76908
  Beta virt. eigenvalues --    1.77159   1.77345   1.78037   1.78493   1.78860
  Beta virt. eigenvalues --    1.78978   1.79311   1.79507   1.80122   1.80332
  Beta virt. eigenvalues --    1.80938   1.81225   1.81557   1.82048   1.82272
  Beta virt. eigenvalues --    1.82673   1.83653   1.83882   1.84327   1.84420
  Beta virt. eigenvalues --    1.84547   1.85244   1.85425   1.85701   1.86079
  Beta virt. eigenvalues --    1.86280   1.86993   1.87376   1.87917   1.88356
  Beta virt. eigenvalues --    1.89374   1.90246   1.90727   1.91196   1.91472
  Beta virt. eigenvalues --    1.91847   1.92528   1.92746   1.93034   1.93412
  Beta virt. eigenvalues --    1.93633   1.93870   1.94134   1.94191   1.94619
  Beta virt. eigenvalues --    1.94932   1.95044   1.95739   1.95811   1.96345
  Beta virt. eigenvalues --    1.96857   1.96931   1.97832   1.98239   1.98770
  Beta virt. eigenvalues --    1.98956   1.99770   1.99963   2.00565   2.00870
  Beta virt. eigenvalues --    2.01218   2.01742   2.02419   2.02459   2.03634
  Beta virt. eigenvalues --    2.03757   2.04166   2.04392   2.06054   2.08337
  Beta virt. eigenvalues --    2.09147   2.09951   2.11466   2.12245   2.15017
  Beta virt. eigenvalues --    2.15740   2.16056   2.16634   2.16822   2.17583
  Beta virt. eigenvalues --    2.17762   2.18253   2.18515   2.18913   2.19079
  Beta virt. eigenvalues --    2.19661   2.19963   2.20381   2.20746   2.21387
  Beta virt. eigenvalues --    2.22188   2.22609   2.22691   2.23184   2.24038
  Beta virt. eigenvalues --    2.24224   2.24850   2.25062   2.27170   2.27927
  Beta virt. eigenvalues --    2.29493   2.29635   2.30391   2.34924   2.37950
  Beta virt. eigenvalues --    2.38378   2.38813   2.39184   2.39882   2.40497
  Beta virt. eigenvalues --    2.40767   2.41255   2.42019   2.42125   2.42389
  Beta virt. eigenvalues --    2.42891   2.43162   2.44333   2.44822   2.45797
  Beta virt. eigenvalues --    2.46930   2.47036   2.47568   2.48873   2.50159
  Beta virt. eigenvalues --    2.51185   2.52117   2.55178   2.55483   2.55886
  Beta virt. eigenvalues --    2.56194   2.56345   2.56414   2.56591   2.57417
  Beta virt. eigenvalues --    2.58167   2.61249   2.61951   2.62300   2.62716
  Beta virt. eigenvalues --    2.62860   2.63385   2.63605   2.63779   2.63943
  Beta virt. eigenvalues --    2.64143   2.64362   2.64778   2.65182   2.65690
  Beta virt. eigenvalues --    2.65947   2.67367   2.69154   2.72183   2.72514
  Beta virt. eigenvalues --    2.72906   2.73214   2.73793   2.74143   2.75101
  Beta virt. eigenvalues --    2.75757   2.79538   2.80484   2.81662   2.84097
  Beta virt. eigenvalues --    2.86152   2.87042   2.87411   2.87655   2.88386
  Beta virt. eigenvalues --    2.88820   2.89084   2.89205   2.89710   2.90817
  Beta virt. eigenvalues --    2.91252   2.92823   2.92988   2.93541   2.94327
  Beta virt. eigenvalues --    2.94866   2.95695   2.95796   2.96268   2.96542
  Beta virt. eigenvalues --    2.96913   2.97172   2.97494   2.98149   2.98838
  Beta virt. eigenvalues --    2.99625   2.99907   3.02033   3.02278   3.03953
  Beta virt. eigenvalues --    3.05008   3.05855   3.05992   3.06652   3.06989
  Beta virt. eigenvalues --    3.07695   3.08525   3.08828   3.09548   3.09909
  Beta virt. eigenvalues --    3.11073   3.11954   3.12468   3.14321   3.18475
  Beta virt. eigenvalues --    3.19660   3.36514   3.61958   3.72688   3.79786
  Beta virt. eigenvalues --    3.86992  45.11399
          Condensed to atoms (all electrons):
          Atomic-Atomic Spin Densities.
 Mulliken charges and spin densities:
               1          2
     1  P    0.275670   0.067073
     2  N   -0.122145   0.084473
     3  C    0.020436   0.003714
     4  H    0.066033  -0.000474
     5  H    0.094680  -0.000114
     6  O   -0.543429   0.000543
     7  P    0.278204   0.074063
     8  C   -0.044211  -0.006765
     9  C    0.000389   0.006910
    10  H    0.012056   0.001162
    11  C    0.068334  -0.006218
    12  H    0.024641   0.000193
    13  C   -0.002774   0.006921
    14  H    0.011591   0.001206
    15  C   -0.034324  -0.006760
    16  C    0.013526   0.004872
    17  H    0.068120  -0.000422
    18  H    0.095545  -0.000246
    19  Ru  -0.005692   1.749706
    20  H    0.176927   0.001313
    21  C   -0.382440   0.003525
    22  C   -0.390836   0.009407
    23  C   -0.389014   0.012446
    24  C   -0.395400   0.001218
    25  C    0.072539  -0.000474
    26  H    0.026243   0.000052
    27  H    0.042370   0.001357
    28  H    0.019160  -0.000112
    29  C    0.083055   0.000277
    30  H    0.015367  -0.000058
    31  H    0.032383   0.001484
    32  H    0.012713  -0.000012
    33  C    0.077485   0.000477
    34  H    0.015081   0.001061
    35  H    0.038149  -0.000000
    36  H    0.027595   0.000022
    37  C    0.080022   0.001437
    38  H    0.013494  -0.000020
    39  H    0.018034   0.002425
    40  H    0.026340  -0.000058
    41  C    0.073106   0.000034
    42  H    0.016804   0.000185
    43  H    0.037167   0.000013
    44  H    0.038737   0.001009
    45  C    0.057281   0.000794
    46  H    0.025842  -0.000828
    47  H    0.036074   0.000136
    48  H    0.020913  -0.000127
    49  C    0.074888   0.000193
    50  H    0.007746  -0.000115
    51  H    0.017227   0.000036
    52  H    0.005849   0.000015
    53  C    0.078543   0.001190
    54  H    0.012735   0.001362
    55  H    0.034889  -0.000024
    56  H    0.027496  -0.000065
    57  C    0.070533  -0.000562
    58  H    0.024260   0.000026
    59  H    0.027093   0.000527
    60  H    0.013405  -0.000004
    61  C    0.076079  -0.000075
    62  H    0.043945   0.001192
    63  H    0.023056   0.000031
    64  H    0.015072  -0.000235
    65  C    0.080399   0.001185
    66  H    0.011409   0.000030
    67  H    0.015896   0.002168
    68  H    0.023978  -0.000061
    69  C    0.069922  -0.000103
    70  H    0.014602   0.000049
    71  H    0.038048   0.000045
    72  H    0.040237   0.001256
    73  O   -0.715812   0.108631
    74  C    0.056558  -0.094541
    75  H    0.154124   0.001646
    76  O   -0.144020  -0.040615
 Sum of Mulliken charges =  -0.00000   2.00000
 Mulliken charges and spin densities with hydrogens summed into heavy atoms:
               1          2
     1  P    0.275670   0.067073
     2  N   -0.122145   0.084473
     3  C    0.181149   0.003125
     6  O   -0.366502   0.001856
     7  P    0.278204   0.074063
     8  C   -0.044211  -0.006765
     9  C    0.012445   0.008072
    11  C    0.092974  -0.006025
    13  C    0.008818   0.008127
    15  C   -0.034324  -0.006760
    16  C    0.177191   0.004204
    19  Ru  -0.005692   1.749706
    21  C   -0.382440   0.003525
    22  C   -0.390836   0.009407
    23  C   -0.389014   0.012446
    24  C   -0.395400   0.001218
    25  C    0.160312   0.000824
    29  C    0.143518   0.001691
    33  C    0.158310   0.001560
    37  C    0.137890   0.003783
    41  C    0.165815   0.001241
    45  C    0.140111  -0.000024
    49  C    0.105710   0.000129
    53  C    0.153663   0.002463
    57  C    0.135292  -0.000013
    61  C    0.158152   0.000912
    65  C    0.131681   0.003322
    69  C    0.162810   0.001247
    73  O   -0.561688   0.110277
    74  C    0.056558  -0.094541
    76  O   -0.144020  -0.040615
 Electronic spatial extent (au):  <R**2>=          13949.6150
 Charge=             -0.0000 electrons
 Dipole moment (field-independent basis, Debye):
    X=              2.1589    Y=             19.1579    Z=              0.4039  Tot=             19.2834
 Quadrupole moment (field-independent basis, Debye-Ang):
   XX=           -166.2842   YY=           -248.4307   ZZ=           -229.4369
   XY=             -1.9447   XZ=            -12.0599   YZ=              3.1080
 Traceless Quadrupole moment (field-independent basis, Debye-Ang):
   XX=             48.4331   YY=            -33.7134   ZZ=            -14.7197
   XY=             -1.9447   XZ=            -12.0599   YZ=              3.1080
 Octapole moment (field-independent basis, Debye-Ang**2):
  XXX=             15.5089  YYY=            250.3645  ZZZ=            -16.3024  XYY=              3.7707
  XXY=            -10.6300  XXZ=             -2.0625  XZZ=             14.6696  YZZ=             -7.8501
  YYZ=            -10.7830  XYZ=              6.0574
 Hexadecapole moment (field-independent basis, Debye-Ang**3):
 XXXX=         -10326.1686 YYYY=          -4947.8425 ZZZZ=          -3403.0514 XXXY=            -11.3927
 XXXZ=            -66.1501 YYYX=              7.7281 YYYZ=             49.6839 ZZZX=            -43.7790
 ZZZY=             40.8576 XXYY=          -2499.7149 XXZZ=          -2264.0045 YYZZ=          -1327.1387
 XXYZ=              4.1125 YYXZ=            -80.0108 ZZXY=            -16.2856
 N-N= 4.426140343379D+03 E-N=-1.350450408964D+04  KE= 1.921251019753D+03
                          Isotropic Fermi Contact Couplings
        Atom                 a.u.       MegaHertz       Gauss      10(-4) cm-1
     1  P(31)              0.07929      71.80405      25.62147      23.95125
     2  N(14)              0.19563      31.60473      11.27735      10.54220
     3  C(13)             -0.00444      -2.49483      -0.89022      -0.83219
     4  H(1)              -0.00010      -0.21238      -0.07578      -0.07084
     5  H(1)              -0.00009      -0.19844      -0.07081      -0.06619
     6  O(17)              0.00730      -2.21343      -0.78981      -0.73832
     7  P(31)              0.08333      75.45734      26.92505      25.16986
     8  C(13)             -0.00540      -3.03405      -1.08262      -1.01205
     9  C(13)              0.00699       3.92785       1.40155       1.31019
    10  H(1)               0.00025       0.56128       0.20028       0.18722
    11  C(13)             -0.00134      -0.75413      -0.26909      -0.25155
    12  H(1)               0.00007       0.16518       0.05894       0.05510
    13  C(13)              0.00700       3.93554       1.40430       1.31276
    14  H(1)               0.00026       0.57522       0.20525       0.19187
    15  C(13)             -0.00562      -3.15625      -1.12623      -1.05281
    16  C(13)             -0.00429      -2.41410      -0.86141      -0.80526
    17  H(1)              -0.00008      -0.17762      -0.06338      -0.05925
    18  H(1)              -0.00016      -0.36262      -0.12939      -0.12096
    19  Ru(99)            -0.00000       0.00043       0.00015       0.00014
    20  H(1)               0.00088       1.97723       0.70552       0.65953
    21  C(13)              0.00385       2.16516       0.77258       0.72222
    22  C(13)              0.00907       5.09668       1.81862       1.70007
    23  C(13)              0.01203       6.76197       2.41284       2.25555
    24  C(13)              0.00207       1.16404       0.41536       0.38828
    25  C(13)             -0.00053      -0.29822      -0.10641      -0.09948
    26  H(1)               0.00000       0.00358       0.00128       0.00120
    27  H(1)               0.00002       0.05381       0.01920       0.01795
    28  H(1)              -0.00003      -0.07633      -0.02724      -0.02546
    29  C(13)              0.00130       0.73080       0.26077       0.24377
    30  H(1)              -0.00001      -0.02138      -0.00763      -0.00713
    31  H(1)              -0.00002      -0.05036      -0.01797      -0.01680
    32  H(1)              -0.00001      -0.01278      -0.00456      -0.00426
    33  C(13)              0.00152       0.85588       0.30540       0.28549
    34  H(1)               0.00036       0.79992       0.28543       0.26682
    35  H(1)               0.00001       0.02309       0.00824       0.00770
    36  H(1)               0.00003       0.07098       0.02533       0.02368
    37  C(13)              0.00298       1.67419       0.59739       0.55845
    38  H(1)               0.00003       0.06213       0.02217       0.02072
    39  H(1)               0.00087       1.94138       0.69273       0.64757
    40  H(1)               0.00001       0.02463       0.00879       0.00821
    41  C(13)             -0.00043      -0.24055      -0.08583      -0.08024
    42  H(1)               0.00005       0.11693       0.04172       0.03900
    43  H(1)               0.00000       0.00452       0.00161       0.00151
    44  H(1)              -0.00002      -0.05386      -0.01922      -0.01796
    45  C(13)             -0.00011      -0.06070      -0.02166      -0.02025
    46  H(1)               0.00001       0.01842       0.00657       0.00615
    47  H(1)               0.00005       0.11639       0.04153       0.03882
    48  H(1)              -0.00003      -0.07079      -0.02526      -0.02361
    49  C(13)             -0.00006      -0.03510      -0.01252      -0.01171
    50  H(1)              -0.00003      -0.06182      -0.02206      -0.02062
    51  H(1)               0.00001       0.01203       0.00429       0.00401
    52  H(1)               0.00001       0.02536       0.00905       0.00846
    53  C(13)              0.00290       1.63133       0.58210       0.54415
    54  H(1)               0.00043       0.96140       0.34305       0.32069
    55  H(1)               0.00000       0.00504       0.00180       0.00168
    56  H(1)              -0.00000      -0.00811      -0.00289      -0.00270
    57  C(13)             -0.00067      -0.37452      -0.13364      -0.12493
    58  H(1)              -0.00001      -0.02928      -0.01045      -0.00977
    59  H(1)               0.00005       0.11961       0.04268       0.03990
    60  H(1)               0.00001       0.01388       0.00495       0.00463
    61  C(13)              0.00110       0.61887       0.22083       0.20643
    62  H(1)              -0.00002      -0.05080      -0.01813      -0.01694
    63  H(1)               0.00001       0.01368       0.00488       0.00456
    64  H(1)              -0.00008      -0.17394      -0.06207      -0.05802
    65  C(13)              0.00262       1.47234       0.52537       0.49112
    66  H(1)               0.00004       0.09648       0.03443       0.03218
    67  H(1)               0.00080       1.79059       0.63893       0.59728
    68  H(1)               0.00001       0.02047       0.00730       0.00683
    69  C(13)             -0.00032      -0.17990      -0.06419      -0.06001
    70  H(1)               0.00002       0.04201       0.01499       0.01401
    71  H(1)               0.00001       0.03299       0.01177       0.01100
    72  H(1)              -0.00003      -0.06507      -0.02322      -0.02170
    73  O(17)              0.08359     -25.33591      -9.04048      -8.45115
    74  C(13)             -0.05501     -30.92188     -11.03370     -10.31443
    75  H(1)              -0.00138      -3.08509      -1.10084      -1.02907
    76  O(17)             -0.01528       4.63031       1.65221       1.54451
 --------------------------------------------------------
       Center         ----  Spin Dipole Couplings  ----
                      3XX-RR        3YY-RR        3ZZ-RR
 --------------------------------------------------------
     1   Atom        0.059513      0.009608     -0.069121
     2   Atom       -0.127566      0.235715     -0.108149
     3   Atom        0.002924      0.006941     -0.009865
     4   Atom        0.001718      0.001508     -0.003226
     5   Atom       -0.000513      0.000069      0.000444
     6   Atom        0.033519     -0.008022     -0.025497
     7   Atom        0.065364      0.015813     -0.081177
     8   Atom        0.004029      0.011614     -0.015643
     9   Atom       -0.005306      0.008495     -0.003189
    10   Atom       -0.000738      0.002542     -0.001804
    11   Atom       -0.000951      0.007234     -0.006284
    12   Atom       -0.000858      0.002060     -0.001202
    13   Atom       -0.005402      0.008506     -0.003104
    14   Atom       -0.000835      0.002563     -0.001728
    15   Atom        0.001275      0.011801     -0.013076
    16   Atom        0.002036      0.007485     -0.009521
    17   Atom        0.001658      0.001608     -0.003266
    18   Atom       -0.000773     -0.000052      0.000825
    19   Atom        0.182858      0.363677     -0.546535
    20   Atom       -0.011577     -0.011765      0.023342
    21   Atom        0.004321     -0.004314     -0.000007
    22   Atom        0.011946     -0.008773     -0.003174
    23   Atom        0.015439     -0.009651     -0.005788
    24   Atom        0.003722     -0.003288     -0.000433
    25   Atom       -0.000247     -0.000172      0.000419
    26   Atom       -0.000279      0.001904     -0.001625
    27   Atom       -0.003730     -0.000791      0.004521
    28   Atom       -0.000437     -0.000558      0.000994
    29   Atom        0.002743     -0.003869      0.001126
    30   Atom        0.000303     -0.001939      0.001636
    31   Atom        0.000430     -0.004909      0.004480
    32   Atom        0.002873     -0.002356     -0.000517
    33   Atom        0.003739     -0.001322     -0.002418
    34   Atom        0.001178     -0.000735     -0.000443
    35   Atom        0.002970     -0.001462     -0.001508
    36   Atom        0.001790     -0.000008     -0.001781
    37   Atom        0.005046     -0.003534     -0.001513
    38   Atom        0.003185     -0.001352     -0.001833
    39   Atom        0.002111     -0.001199     -0.000912
    40   Atom        0.001722     -0.001331     -0.000391
    41   Atom        0.005464     -0.001711     -0.003753
    42   Atom        0.003010     -0.000981     -0.002029
    43   Atom        0.004195     -0.002014     -0.002181
    44   Atom        0.006573     -0.001440     -0.005133
    45   Atom        0.002552     -0.004664      0.002112
    46   Atom        0.002443     -0.003493      0.001050
    47   Atom        0.000482     -0.004931      0.004449
    48   Atom        0.001421     -0.001955      0.000534
    49   Atom        0.002681     -0.004037      0.001356
    50   Atom        0.000923     -0.002164      0.001242
    51   Atom        0.001189     -0.006368      0.005178
    52   Atom        0.003680     -0.002755     -0.000925
    53   Atom        0.005250     -0.001924     -0.003326
    54   Atom        0.001367     -0.000914     -0.000453
    55   Atom        0.003298     -0.001633     -0.001665
    56   Atom        0.001944     -0.000113     -0.001831
    57   Atom       -0.000044      0.000007      0.000037
    58   Atom       -0.000169      0.002013     -0.001844
    59   Atom       -0.003861      0.000241      0.003620
    60   Atom       -0.000298     -0.000496      0.000794
    61   Atom        0.001399     -0.004310      0.002911
    62   Atom        0.000568     -0.003915      0.003347
    63   Atom       -0.001135     -0.003970      0.005104
    64   Atom        0.000871     -0.001889      0.001018
    65   Atom        0.004639     -0.003276     -0.001363
    66   Atom        0.003114     -0.001403     -0.001712
    67   Atom        0.001880     -0.001158     -0.000722
    68   Atom        0.001487     -0.001201     -0.000286
    69   Atom        0.005616     -0.001808     -0.003808
    70   Atom        0.002854     -0.001006     -0.001849
    71   Atom        0.004359     -0.002009     -0.002349
    72   Atom        0.006753     -0.001324     -0.005429
    73   Atom       -0.052459      0.292569     -0.240110
    74   Atom       -0.038858     -0.053627      0.092485
    75   Atom       -0.021592      0.004864      0.016729
    76   Atom       -0.033767     -0.073323      0.107090
 --------------------------------------------------------
                        XY            XZ            YZ
 --------------------------------------------------------
     1   Atom        0.117516     -0.030921     -0.033388
     2   Atom        0.005951      0.011947      0.006064
     3   Atom        0.002548     -0.003749     -0.001554
     4   Atom        0.004027     -0.001779     -0.001727
     5   Atom        0.004775     -0.005644     -0.006123
     6   Atom        0.029132     -0.002496     -0.004489
     7   Atom       -0.129890     -0.031998      0.030637
     8   Atom        0.012064     -0.009245     -0.004181
     9   Atom        0.002017      0.001584     -0.000809
    10   Atom        0.002088     -0.000561     -0.000952
    11   Atom        0.000167     -0.003389      0.000277
    12   Atom        0.000061     -0.000178      0.000104
    13   Atom       -0.001788      0.001523      0.000803
    14   Atom       -0.001961     -0.000606      0.001138
    15   Atom       -0.010801     -0.011546      0.006942
    16   Atom       -0.001952     -0.003941      0.002054
    17   Atom       -0.004017     -0.001788      0.001815
    18   Atom       -0.004053     -0.005342      0.006093
    19   Atom        0.000713     -0.007331      0.072553
    20   Atom       -0.002674     -0.011084      0.006145
    21   Atom       -0.006999      0.009677     -0.005997
    22   Atom        0.006758     -0.015222     -0.005726
    23   Atom       -0.009448     -0.016355      0.006918
    24   Atom        0.005493      0.007685      0.004607
    25   Atom        0.003326      0.004069      0.004177
    26   Atom        0.003390      0.002354      0.003116
    27   Atom        0.002921      0.005539      0.008184
    28   Atom        0.001440      0.002296      0.002311
    29   Atom        0.000700      0.006068      0.000450
    30   Atom        0.000420      0.003087      0.000506
    31   Atom       -0.000518      0.008680     -0.001491
    32   Atom       -0.000519      0.003490     -0.000394
    33   Atom        0.003144      0.001934      0.000939
    34   Atom        0.001323      0.001428      0.000803
    35   Atom        0.001142      0.001098      0.000407
    36   Atom        0.002513      0.000702      0.000436
    37   Atom        0.002943     -0.005146     -0.001769
    38   Atom        0.001702     -0.000907     -0.000045
    39   Atom       -0.000000     -0.001944      0.000100
    40   Atom        0.001455     -0.002636     -0.001408
    41   Atom       -0.002329     -0.000736     -0.000428
    42   Atom       -0.002009     -0.001083      0.000329
    43   Atom       -0.001150      0.000898     -0.000269
    44   Atom       -0.005318      0.000983     -0.000662
    45   Atom       -0.001866     -0.007366      0.001334
    46   Atom       -0.005767     -0.010012      0.006478
    47   Atom        0.000177     -0.006705     -0.000108
    48   Atom       -0.001230     -0.003511      0.001399
    49   Atom       -0.000327      0.006014     -0.000070
    50   Atom       -0.000460      0.003291     -0.000347
    51   Atom        0.000798      0.009374      0.001266
    52   Atom        0.001008      0.003999      0.000772
    53   Atom       -0.003941      0.002006     -0.000897
    54   Atom       -0.001413      0.001483     -0.000804
    55   Atom       -0.000965      0.000991     -0.000372
    56   Atom       -0.002620      0.000607     -0.000274
    57   Atom       -0.003770      0.004128     -0.004193
    58   Atom       -0.003566      0.002259     -0.002966
    59   Atom       -0.003931      0.005595     -0.008028
    60   Atom       -0.001759      0.002368     -0.002369
    61   Atom        0.001377     -0.007528     -0.001336
    62   Atom        0.003893     -0.009837     -0.006079
    63   Atom       -0.000233     -0.005904      0.000414
    64   Atom        0.000866     -0.003382     -0.001215
    65   Atom       -0.002647     -0.004868      0.001579
    66   Atom       -0.001591     -0.001031      0.000095
    67   Atom       -0.000041     -0.001967     -0.000081
    68   Atom       -0.001387     -0.002624      0.001383
    69   Atom        0.002178     -0.001425      0.000005
    70   Atom        0.001895     -0.001436     -0.000468
    71   Atom        0.001272      0.000526      0.000216
    72   Atom        0.005626     -0.000155      0.000142
    73   Atom        0.010677     -0.011840      0.032096
    74   Atom       -0.002749      0.005433     -0.004361
    75   Atom        0.000448      0.002373      0.012657
    76   Atom       -0.001317      0.007582     -0.005666
 --------------------------------------------------------


 ---------------------------------------------------------------------------------
              Anisotropic Spin Dipole Couplings in Principal Axis System
 ---------------------------------------------------------------------------------

       Atom             a.u.   MegaHertz   Gauss  10(-4) cm-1        Axes

              Baa    -0.0892   -19.275    -6.878    -6.430 -0.4794  0.7333  0.4821
     1 P(31)  Bbb    -0.0743   -16.055    -5.729    -5.355  0.4393 -0.2751  0.8552
              Bcc     0.1634    35.330    12.607    11.785  0.7598  0.6217 -0.1903
 
              Baa    -0.1333    -5.140    -1.834    -1.715  0.9038 -0.0075 -0.4280
     2 N(14)  Bbb    -0.1027    -3.959    -1.413    -1.321  0.4277 -0.0237  0.9036
              Bcc     0.2359     9.099     3.247     3.035  0.0170  0.9997  0.0182
 
              Baa    -0.0109    -1.466    -0.523    -0.489  0.2528  0.0480  0.9663
     3 C(13)  Bbb     0.0022     0.298     0.106     0.099  0.8355 -0.5145 -0.1930
              Bcc     0.0087     1.168     0.417     0.390  0.4879  0.8561 -0.1702
 
              Baa    -0.0039    -2.066    -0.737    -0.689  0.1825  0.1740  0.9677
     4 H(1)   Bbb    -0.0024    -1.289    -0.460    -0.430 -0.6972  0.7168  0.0026
              Bcc     0.0063     3.354     1.197     1.119  0.6932  0.6752 -0.2522
 
              Baa    -0.0061    -3.243    -1.157    -1.082  0.3755  0.4912  0.7860
     5 H(1)   Bbb    -0.0050    -2.669    -0.952    -0.890  0.7553 -0.6537  0.0477
              Bcc     0.0111     5.912     2.110     1.972 -0.5372 -0.5757  0.6164
 
              Baa    -0.0275     1.993     0.711     0.665 -0.2022  0.4960  0.8444
     6 O(17)  Bbb    -0.0212     1.537     0.548     0.513 -0.4163  0.7369 -0.5326
              Bcc     0.0488    -3.529    -1.259    -1.177  0.8864  0.4592 -0.0575
 
              Baa    -0.0936   -20.245    -7.224    -6.753  0.4713  0.7069 -0.5274
     7 P(31)  Bbb    -0.0866   -18.731    -6.684    -6.248  0.4501  0.3215  0.8331
              Bcc     0.1803    38.975    13.907    13.001  0.7585 -0.6300 -0.1666
 
              Baa    -0.0193    -2.592    -0.925    -0.865  0.3780 -0.0223  0.9255
     8 C(13)  Bbb    -0.0032    -0.435    -0.155    -0.145  0.6973 -0.6507 -0.3005
              Bcc     0.0226     3.028     1.080     1.010  0.6090  0.7590 -0.2304
 
              Baa    -0.0065    -0.868    -0.310    -0.289  0.8767 -0.1431 -0.4592
     9 C(13)  Bbb    -0.0023    -0.315    -0.112    -0.105  0.4614 -0.0197  0.8870
              Bcc     0.0088     1.182     0.422     0.394  0.1359  0.9895 -0.0488
 
              Baa    -0.0020    -1.092    -0.390    -0.364  0.3352  0.0427  0.9412
    10 H(1)   Bbb    -0.0017    -0.922    -0.329    -0.307  0.8374 -0.4712 -0.2769
              Bcc     0.0038     2.014     0.718     0.672  0.4317  0.8810 -0.1937
 
              Baa    -0.0079    -1.065    -0.380    -0.355  0.4368 -0.0212  0.8993
    11 C(13)  Bbb     0.0007     0.093     0.033     0.031  0.8995 -0.0045 -0.4370
              Bcc     0.0072     0.972     0.347     0.324  0.0133  0.9998  0.0171
 
              Baa    -0.0013    -0.684    -0.244    -0.228  0.3909 -0.0357  0.9198
    12 H(1)   Bbb    -0.0008    -0.418    -0.149    -0.139  0.9203 -0.0056 -0.3913
              Bcc     0.0021     1.101     0.393     0.367  0.0191  0.9993  0.0307
 
              Baa    -0.0064    -0.861    -0.307    -0.287  0.8886  0.1301 -0.4399
    13 C(13)  Bbb    -0.0023    -0.315    -0.112    -0.105  0.4428  0.0067  0.8966
              Bcc     0.0088     1.176     0.420     0.392 -0.1196  0.9915  0.0517
 
              Baa    -0.0020    -1.093    -0.390    -0.364  0.3054 -0.1037  0.9466
    14 H(1)   Bbb    -0.0017    -0.913    -0.326    -0.305  0.8607  0.4554 -0.2278
              Bcc     0.0038     2.006     0.716     0.669 -0.4074  0.8842  0.2284
 
              Baa    -0.0195    -2.620    -0.935    -0.874  0.4722 -0.0324  0.8809
    15 C(13)  Bbb    -0.0032    -0.431    -0.154    -0.144  0.6811  0.6478 -0.3413
              Bcc     0.0227     3.051     1.089     1.018 -0.5596  0.7611  0.3280
 
              Baa    -0.0108    -1.455    -0.519    -0.485  0.2810 -0.0773  0.9566
    16 C(13)  Bbb     0.0021     0.287     0.103     0.096  0.8836  0.4098 -0.2264
              Bcc     0.0087     1.168     0.417     0.390 -0.3745  0.9089  0.1834
 
              Baa    -0.0039    -2.104    -0.751    -0.702  0.1702 -0.1928  0.9664
    17 H(1)   Bbb    -0.0024    -1.272    -0.454    -0.424  0.7084  0.7056  0.0161
              Bcc     0.0063     3.376     1.205     1.126  0.6850 -0.6818 -0.2567
 
              Baa    -0.0060    -3.198    -1.141    -1.067  0.3684 -0.5310  0.7631
    18 H(1)   Bbb    -0.0045    -2.385    -0.851    -0.796  0.7764  0.6272  0.0616
              Bcc     0.0105     5.584     1.992     1.863 -0.5113  0.5698  0.6434
 
              Baa    -0.5524    13.534     4.829     4.515  0.0100 -0.0790  0.9968
    19 Ru(99) Bbb     0.1829    -4.482    -1.599    -1.495  0.9999  0.0001 -0.0100
              Bcc     0.3694    -9.052    -3.230    -3.019  0.0007  0.9969  0.0790
 
              Baa    -0.0151    -8.065    -2.878    -2.690  0.9140  0.3485  0.2077
    20 H(1)   Bbb    -0.0126    -6.705    -2.393    -2.237 -0.2952  0.9224 -0.2490
              Bcc     0.0277    14.770     5.270     4.927 -0.2784  0.1662  0.9460
 
              Baa    -0.0085    -1.147    -0.409    -0.383  0.0923  0.8610  0.5001
    21 C(13)  Bbb    -0.0077    -1.028    -0.367    -0.343  0.6994  0.3014 -0.6480
              Bcc     0.0162     2.175     0.776     0.726  0.7087 -0.4096  0.5744
 
              Baa    -0.0133    -1.789    -0.639    -0.597  0.3538  0.4819  0.8016
    22 C(13)  Bbb    -0.0104    -1.397    -0.499    -0.466 -0.4577  0.8366 -0.3009
              Bcc     0.0237     3.187     1.137     1.063  0.8156  0.2605 -0.5166
 
              Baa    -0.0156    -2.096    -0.748    -0.699  0.2734 -0.5114  0.8147
    23 C(13)  Bbb    -0.0123    -1.650    -0.589    -0.550  0.4789  0.8069  0.3458
              Bcc     0.0279     3.746     1.337     1.249  0.8342 -0.2956 -0.4655
 
              Baa    -0.0067    -0.899    -0.321    -0.300  0.1142  0.7284 -0.6755
    24 C(13)  Bbb    -0.0061    -0.818    -0.292    -0.273  0.6833 -0.5512 -0.4789
              Bcc     0.0128     1.717     0.613     0.573  0.7212  0.4069  0.5607
 
              Baa    -0.0042    -0.566    -0.202    -0.189 -0.4016 -0.4769  0.7818
    25 C(13)  Bbb    -0.0035    -0.474    -0.169    -0.158  0.7333 -0.6789 -0.0374
              Bcc     0.0078     1.040     0.371     0.347  0.5486  0.5583  0.6224
 
              Baa    -0.0036    -1.896    -0.677    -0.632 -0.3199 -0.3121  0.8946
    26 H(1)   Bbb    -0.0027    -1.464    -0.523    -0.488  0.7848 -0.6163  0.0656
              Bcc     0.0063     3.360     1.199     1.121  0.5308  0.7230  0.4421
 
              Baa    -0.0073    -3.898    -1.391    -1.300 -0.5254 -0.5644  0.6367
    27 H(1)   Bbb    -0.0055    -2.932    -1.046    -0.978  0.7747 -0.6267  0.0837
              Bcc     0.0128     6.829     2.437     2.278  0.3518  0.5372  0.7665
 
              Baa    -0.0023    -1.226    -0.437    -0.409 -0.3991 -0.5958  0.6969
    28 H(1)   Bbb    -0.0019    -1.030    -0.367    -0.343  0.7672 -0.6332 -0.1020
              Bcc     0.0042     2.255     0.805     0.752  0.5021  0.4940  0.7098
 
              Baa    -0.0042    -0.568    -0.203    -0.190 -0.6312  0.3661  0.6837
    29 C(13)  Bbb    -0.0039    -0.520    -0.186    -0.174  0.1936  0.9281 -0.3182
              Bcc     0.0081     1.089     0.388     0.363  0.7510  0.0685  0.6567
 
              Baa    -0.0022    -1.168    -0.417    -0.390  0.7804 -0.0499 -0.6233
    30 H(1)   Bbb    -0.0020    -1.072    -0.383    -0.358 -0.0279  0.9931 -0.1143
              Bcc     0.0042     2.240     0.799     0.747  0.6247  0.1066  0.7736
 
              Baa    -0.0066    -3.537    -1.262    -1.180  0.7285 -0.3100 -0.6109
    31 H(1)   Bbb    -0.0049    -2.601    -0.928    -0.868  0.2976  0.9464 -0.1254
              Bcc     0.0115     6.138     2.190     2.047  0.6170 -0.0905  0.7817
 
              Baa    -0.0027    -1.448    -0.517    -0.483 -0.5076  0.1890  0.8406
    32 H(1)   Bbb    -0.0024    -1.281    -0.457    -0.427  0.1728  0.9781 -0.1156
              Bcc     0.0051     2.729     0.974     0.910  0.8441 -0.0866  0.5291
 
              Baa    -0.0030    -0.400    -0.143    -0.133 -0.1959 -0.1747  0.9649
    33 C(13)  Bbb    -0.0028    -0.379    -0.135    -0.127 -0.4477  0.8914  0.0705
              Bcc     0.0058     0.779     0.278     0.260  0.8725  0.4182  0.2529
 
              Baa    -0.0014    -0.766    -0.273    -0.255 -0.2715  0.9010 -0.3383
    34 H(1)   Bbb    -0.0013    -0.678    -0.242    -0.226 -0.5546  0.1408  0.8201
              Bcc     0.0027     1.443     0.515     0.481  0.7866  0.4103  0.4614
 
              Baa    -0.0019    -1.010    -0.360    -0.337 -0.0082 -0.6750  0.7378
    35 H(1)   Bbb    -0.0016    -0.866    -0.309    -0.289 -0.3259  0.6993  0.6362
              Bcc     0.0035     1.876     0.669     0.626  0.9454  0.2352  0.2257
 
              Baa    -0.0019    -1.025    -0.366    -0.342 -0.2973  0.1768  0.9383
    36 H(1)   Bbb    -0.0018    -0.940    -0.336    -0.314 -0.5068  0.8036 -0.3120
              Bcc     0.0037     1.966     0.701     0.656  0.8092  0.5683  0.1492
 
              Baa    -0.0046    -0.612    -0.218    -0.204  0.0387  0.8346  0.5495
    37 C(13)  Bbb    -0.0043    -0.572    -0.204    -0.191  0.5358 -0.4815  0.6936
              Bcc     0.0088     1.184     0.422     0.395  0.8435  0.2676 -0.4658
 
              Baa    -0.0022    -1.167    -0.416    -0.389  0.3149 -0.6029  0.7330
    38 H(1)   Bbb    -0.0017    -0.907    -0.324    -0.303 -0.1335  0.7365  0.6631
              Bcc     0.0039     2.074     0.740     0.692  0.9397  0.3067 -0.1514
 
              Baa    -0.0019    -1.000    -0.357    -0.334  0.4344 -0.1319  0.8910
    39 H(1)   Bbb    -0.0012    -0.633    -0.226    -0.211  0.0672  0.9912  0.1139
              Bcc     0.0031     1.634     0.583     0.545  0.8982 -0.0104 -0.4395
 
              Baa    -0.0024    -1.306    -0.466    -0.436  0.2652  0.6030  0.7524
    40 H(1)   Bbb    -0.0018    -0.947    -0.338    -0.316 -0.5821  0.7222 -0.3737
              Bcc     0.0042     2.254     0.804     0.752  0.7687  0.3389 -0.5425
 
              Baa    -0.0040    -0.540    -0.193    -0.180  0.1525  0.3263  0.9329
    41 C(13)  Bbb    -0.0022    -0.291    -0.104    -0.097  0.2414  0.9030 -0.3553
              Bcc     0.0062     0.830     0.296     0.277  0.9584 -0.2794 -0.0589
 
              Baa    -0.0023    -1.208    -0.431    -0.403  0.2542  0.1528  0.9550
    42 H(1)   Bbb    -0.0018    -0.955    -0.341    -0.318  0.3299  0.9145 -0.2341
              Bcc     0.0041     2.163     0.772     0.722  0.9092 -0.3746 -0.1820
 
              Baa    -0.0024    -1.270    -0.453    -0.424 -0.0143  0.5634  0.8260
    43 H(1)   Bbb    -0.0022    -1.147    -0.409    -0.383  0.2235  0.8070 -0.5466
              Bcc     0.0045     2.417     0.863     0.806  0.9746 -0.1768  0.1374
 
              Baa    -0.0052    -2.801    -0.999    -0.934 -0.0133  0.1531  0.9881
    44 H(1)   Bbb    -0.0041    -2.172    -0.775    -0.725  0.4527  0.8821 -0.1306
              Bcc     0.0093     4.973     1.774     1.659  0.8916 -0.4456  0.0811
 
              Baa    -0.0054    -0.720    -0.257    -0.240  0.5753  0.6867  0.4443
    45 C(13)  Bbb    -0.0047    -0.629    -0.224    -0.210 -0.4033  0.7107 -0.5764
              Bcc     0.0101     1.349     0.481     0.450  0.7116 -0.1524 -0.6858
 
              Baa    -0.0087    -4.642    -1.656    -1.548  0.4580 -0.4479  0.7678
    46 H(1)   Bbb    -0.0070    -3.723    -1.328    -1.242  0.5987  0.7939  0.1060
              Bcc     0.0157     8.365     2.985     2.790  0.6571 -0.4111 -0.6318
 
              Baa    -0.0049    -2.640    -0.942    -0.881 -0.1516  0.9837 -0.0968
    47 H(1)   Bbb    -0.0045    -2.408    -0.859    -0.803  0.7867  0.1794  0.5907
              Bcc     0.0095     5.048     1.801     1.684 -0.5985 -0.0134  0.8010
 
              Baa    -0.0027    -1.461    -0.521    -0.487  0.4088 -0.5944  0.6925
    48 H(1)   Bbb    -0.0023    -1.210    -0.432    -0.404  0.5613  0.7621  0.3228
              Bcc     0.0050     2.672     0.953     0.891  0.7196 -0.2568 -0.6452
 
              Baa    -0.0042    -0.564    -0.201    -0.188  0.4764  0.7189 -0.5063
    49 C(13)  Bbb    -0.0039    -0.520    -0.185    -0.173 -0.4672  0.6947  0.5468
              Bcc     0.0081     1.084     0.387     0.361  0.7448 -0.0240  0.6668
 
              Baa    -0.0023    -1.231    -0.439    -0.410  0.5518  0.7068 -0.4427
    50 H(1)   Bbb    -0.0021    -1.131    -0.404    -0.377 -0.4712  0.7022  0.5338
              Bcc     0.0044     2.361     0.843     0.788  0.6881 -0.0860  0.7205
 
              Baa    -0.0066    -3.533    -1.261    -1.179  0.4452  0.7813 -0.4375
    51 H(1)   Bbb    -0.0063    -3.340    -1.192    -1.114  0.6394 -0.6194 -0.4554
              Bcc     0.0129     6.873     2.453     2.293  0.6268  0.0770  0.7753
 
              Baa    -0.0033    -1.765    -0.630    -0.589 -0.4131 -0.3938  0.8211
    52 H(1)   Bbb    -0.0029    -1.527    -0.545    -0.509 -0.3107  0.9085  0.2794
              Bcc     0.0062     3.291     1.174     1.098  0.8560  0.1397  0.4977
 
              Baa    -0.0038    -0.507    -0.181    -0.169 -0.1479  0.1582  0.9763
    53 C(13)  Bbb    -0.0037    -0.492    -0.175    -0.164  0.4185  0.9044 -0.0832
              Bcc     0.0074     0.998     0.356     0.333  0.8961 -0.3963  0.1999
 
              Baa    -0.0016    -0.858    -0.306    -0.286  0.3261  0.9191  0.2212
    54 H(1)   Bbb    -0.0013    -0.685    -0.244    -0.228 -0.5006 -0.0306  0.8651
              Bcc     0.0029     1.543     0.551     0.515  0.8019 -0.3929  0.4501
 
              Baa    -0.0020    -1.079    -0.385    -0.360 -0.0174  0.6684  0.7436
    55 H(1)   Bbb    -0.0017    -0.887    -0.316    -0.296  0.2680  0.7196 -0.6405
              Bcc     0.0037     1.966     0.701     0.656  0.9633 -0.1882  0.1916
 
              Baa    -0.0020    -1.077    -0.384    -0.359 -0.4587 -0.5282  0.7145
    56 H(1)   Bbb    -0.0018    -0.954    -0.340    -0.318  0.3374  0.6404  0.6900
              Bcc     0.0038     2.031     0.725     0.678  0.8220 -0.5576  0.1155
 
              Baa    -0.0043    -0.574    -0.205    -0.191 -0.3857  0.4493  0.8058
    57 C(13)  Bbb    -0.0038    -0.508    -0.181    -0.170  0.7275  0.6853 -0.0339
              Bcc     0.0081     1.082     0.386     0.361  0.5675 -0.5731  0.5912
 
              Baa    -0.0035    -1.891    -0.675    -0.631 -0.2973  0.2941  0.9083
    58 H(1)   Bbb    -0.0028    -1.496    -0.534    -0.499  0.7852  0.6166  0.0574
              Bcc     0.0063     3.387     1.209     1.130 -0.5432  0.7303 -0.4143
 
              Baa    -0.0069    -3.697    -1.319    -1.233  0.7713 -0.2380 -0.5902
    59 H(1)   Bbb    -0.0060    -3.191    -1.139    -1.065  0.5128  0.7818  0.3548
              Bcc     0.0129     6.889     2.458     2.298  0.3770 -0.5764  0.7251
 
              Baa    -0.0023    -1.234    -0.440    -0.412 -0.1615  0.7216  0.6733
    60 H(1)   Bbb    -0.0021    -1.135    -0.405    -0.379  0.8334  0.4651 -0.2985
              Bcc     0.0044     2.369     0.845     0.790  0.5285 -0.5129  0.6765
 
              Baa    -0.0054    -0.728    -0.260    -0.243  0.7460 -0.1417  0.6507
    61 C(13)  Bbb    -0.0045    -0.610    -0.218    -0.204  0.0176  0.9810  0.1934
              Bcc     0.0100     1.339     0.478     0.447 -0.6657 -0.1328  0.7343
 
              Baa    -0.0085    -4.537    -1.619    -1.513  0.5648  0.4430  0.6962
    62 H(1)   Bbb    -0.0061    -3.278    -1.170    -1.094 -0.5674  0.8211 -0.0622
              Bcc     0.0146     7.815     2.789     2.607 -0.5992 -0.3599  0.7152
 
              Baa    -0.0047    -2.504    -0.894    -0.835  0.8560 -0.0193  0.5167
    63 H(1)   Bbb    -0.0040    -2.127    -0.759    -0.710  0.0359  0.9991 -0.0222
              Bcc     0.0087     4.631     1.653     1.545 -0.5158  0.0375  0.8559
 
              Baa    -0.0026    -1.377    -0.491    -0.459  0.5275  0.5202  0.6716
    64 H(1)   Bbb    -0.0021    -1.109    -0.396    -0.370 -0.5130  0.8252 -0.2363
              Bcc     0.0047     2.486     0.887     0.829 -0.6772 -0.2199  0.7022
 
              Baa    -0.0042    -0.561    -0.200    -0.187 -0.1500  0.7288 -0.6681
    65 C(13)  Bbb    -0.0040    -0.538    -0.192    -0.179  0.5177  0.6336  0.5750
              Bcc     0.0082     1.098     0.392     0.366  0.8423 -0.2596 -0.4723
 
              Baa    -0.0021    -1.130    -0.403    -0.377  0.3317  0.6448  0.6887
    66 H(1)   Bbb    -0.0017    -0.899    -0.321    -0.300  0.0835  0.7071 -0.7022
              Bcc     0.0038     2.030     0.724     0.677  0.9397 -0.2904 -0.1807
 
              Baa    -0.0018    -0.956    -0.341    -0.319  0.4686  0.1425  0.8718
    67 H(1)   Bbb    -0.0011    -0.611    -0.218    -0.204 -0.0680  0.9898 -0.1253
              Bcc     0.0029     1.567     0.559     0.523  0.8808  0.0005 -0.4735
 
              Baa    -0.0024    -1.261    -0.450    -0.421  0.3470 -0.5169  0.7825
    68 H(1)   Bbb    -0.0017    -0.916    -0.327    -0.305  0.5599  0.7836  0.2693
              Bcc     0.0041     2.177     0.777     0.726  0.7524 -0.3447 -0.5613
 
              Baa    -0.0041    -0.547    -0.195    -0.182  0.1819 -0.1769  0.9673
    69 C(13)  Bbb    -0.0023    -0.311    -0.111    -0.104 -0.2223  0.9508  0.2157
              Bcc     0.0064     0.858     0.306     0.286  0.9578  0.2543 -0.1337
 
              Baa    -0.0023    -1.205    -0.430    -0.402  0.3065 -0.1107  0.9454
    70 H(1)   Bbb    -0.0018    -0.937    -0.334    -0.313 -0.3149  0.9255  0.2105
              Bcc     0.0040     2.143     0.765     0.715  0.8983  0.3622 -0.2488
 
              Baa    -0.0025    -1.311    -0.468    -0.437  0.0244 -0.4908  0.8709
    71 H(1)   Bbb    -0.0022    -1.169    -0.417    -0.390 -0.2041  0.8504  0.4849
              Bcc     0.0046     2.480     0.885     0.827  0.9786  0.1896  0.0794
 
              Baa    -0.0055    -2.913    -1.040    -0.972  0.0753 -0.1363  0.9878
    72 H(1)   Bbb    -0.0042    -2.230    -0.796    -0.744 -0.4502  0.8793  0.1556
              Bcc     0.0096     5.144     1.835     1.716  0.8897  0.4564 -0.0049
 
              Baa    -0.2429    17.573     6.270     5.862  0.0654 -0.0610  0.9960
    73 O(17)  Bbb    -0.0519     3.758     1.341     1.253  0.9975 -0.0247 -0.0670
              Bcc     0.2948   -21.330    -7.611    -7.115  0.0287  0.9978  0.0592
 
              Baa    -0.0542    -7.273    -2.595    -2.426  0.1684  0.9854  0.0231
    74 C(13)  Bbb    -0.0386    -5.186    -1.850    -1.730  0.9848 -0.1672 -0.0464
              Bcc     0.0928    12.459     4.446     4.156  0.0418 -0.0305  0.9987
 
              Baa    -0.0217   -11.601    -4.140    -3.870  0.9977  0.0148 -0.0664
    75 H(1)   Bbb    -0.0031    -1.675    -0.598    -0.559 -0.0480  0.8450 -0.5326
              Bcc     0.0249    13.276     4.737     4.428  0.0482  0.5345  0.8438
 
              Baa    -0.0735     5.321     1.899     1.775  0.0273  0.9992  0.0302
    76 O(17)  Bbb    -0.0341     2.471     0.882     0.824  0.9982 -0.0257 -0.0546
              Bcc     0.1077    -7.792    -2.780    -2.599  0.0538 -0.0316  0.9981
 

 ---------------------------------------------------------------------------------

 Unable to Open any file for archive entry.
 1\1\GINC-NODE073\SP\UB3LYP\def2SVP\C24H45N1O3P2Ru1(3)\DO57CIG\16-Jan-2
 025\0\\# ub3lyp scrf=(smd,solvent=water) def2svp empiricaldispersion=g
 d3bj int=ultrafine scf=xqc guess=read\\A_Ru_Cis_DFT_B3LYP_def2svp_smd_
 water_T_Opt_3MLCT_from_3MLCT_trans\\0,3\P,0,2.412868,-0.094449,-0.1442
 65\N,0,-0.014745,1.67011,-0.067832\C,0,2.18893,1.497128,-1.074514\H,0,
 3.113566,2.087781,-1.109246\H,0,1.953738,1.189827,-2.107226\O,0,-0.142
 639,-1.080228,-2.140182\P,0,-2.428322,-0.088089,0.052854\C,0,1.054182,
 2.32638,-0.534279\C,0,1.114542,3.72489,-0.504876\H,0,1.992958,4.241783
 ,-0.894696\C,0,0.04121,4.42916,0.042209\H,0,0.062461,5.520526,0.084666
 \C,0,-1.057448,3.726797,0.538424\H,0,-1.91242,4.245906,0.974803\C,0,-1
 .05312,2.328339,0.459942\C,0,-2.212963,1.510172,0.968938\H,0,-3.132233
 ,2.11112,0.970919\H,0,-2.011577,1.219289,2.014087\Ru,0,-0.01216227,-1.
 01070848,-0.05203733\H,0,0.692632,-1.43269,-2.464648\C,0,-3.251867,0.4
 14832,-1.597843\C,0,-3.689242,-1.026507,1.141738\C,0,3.672968,-1.03308
 4,-1.235163\C,0,3.23895,0.41126,1.50261\C,0,2.316777,1.435151,2.194192
 \H,0,2.315062,2.400477,1.671025\H,0,1.27969,1.092861,2.284222\H,0,2.70
 2246,1.612888,3.211336\C,0,3.382488,-0.831614,2.403768\H,0,3.521161,-0
 .503169,3.446828\H,0,2.501202,-1.483887,2.374833\H,0,4.256058,-1.43457
 8,2.131644\C,0,4.614888,1.069055,1.328299\H,0,4.960743,1.42544,2.3136\
 H,0,5.368667,0.364833,0.953429\H,0,4.578807,1.940314,0.657466\C,0,4.74
 511,-0.114754,-1.842777\H,0,5.322707,0.432533,-1.089586\H,0,5.451726,-
 0.73695,-2.41789\H,0,4.308508,0.612477,-2.542041\C,0,4.330706,-2.15353
 1,-0.417947\H,0,4.873638,-2.822089,-1.106183\H,0,5.057683,-1.766837,0.
 307096\H,0,3.584063,-2.758676,0.11881\C,0,2.906494,-1.687136,-2.394227
 \H,0,2.185308,-2.432688,-2.030052\H,0,2.39151,-0.942841,-3.019376\H,0,
 3.627573,-2.211705,-3.042014\C,0,-3.305865,-0.812024,-2.526736\H,0,-3.
 622781,-0.480335,-3.530174\H,0,-2.318534,-1.282973,-2.614999\H,0,-4.02
 9577,-1.561929,-2.187181\C,0,-4.659288,1.003095,-1.433168\H,0,-5.00036
 6,1.37308,-2.415293\H,0,-5.388741,0.25561,-1.095253\H,0,-4.677611,1.85
 4828,-0.736724\C,0,-2.365234,1.487083,-2.258986\H,0,-2.389092,2.438805
 ,-1.710576\H,0,-1.322309,1.164388,-2.356179\H,0,-2.758542,1.681744,-3.
 270545\C,0,-2.923237,-1.658418,2.312524\H,0,-2.185951,-2.395359,1.9665
 45\H,0,-2.408753,-0.907964,2.926963\H,0,-3.645996,-2.180454,2.961255\C
 ,0,-4.776892,-0.114107,1.731119\H,0,-5.362472,0.410039,0.968029\H,0,-5
 .474454,-0.736122,2.317381\H,0,-4.352501,0.632985,2.417059\C,0,-4.3270
 81,-2.163039,0.330299\H,0,-4.882085,-2.821634,1.018632\H,0,-5.039442,-
 1.794447,-0.418833\H,0,-3.566315,-2.775045,-0.178514\O,0,0.03011079,-3
 .89561195,-0.34451799\C,0,0.05929373,-1.04636848,1.76684967\H,0,-0.033
 25221,-3.89769995,-1.31532599\O,0,0.12707673,-1.08763748,2.93618267\\V
 ersion=ES64L-G16RevC.02\State=3-A\HF=-1998.9181533\S2=2.022995\S2-1=0.
 \S2A=2.000297\RMSD=3.254e-09\Dipole=0.8521869,7.5324482,0.3059516\Quad
 rupole=36.0071461,-25.1489498,-10.8581963,-1.2932325,-8.9938095,2.0368
 184\PG=C01 [X(C24H45N1O3P2Ru1)]\\@
 The archive entry for this job was punched.


 Happiness is a conscious choice, not an automatic response.
 -- Mildred Barthel
 Job cpu time:       0 days  2 hours 45 minutes 50.3 seconds.
 Elapsed time:       0 days  0 hours  7 minutes 32.4 seconds.
 File lengths (MBytes):  RWF=    829 Int=      0 D2E=      0 Chk=     67 Scr=      1
 Normal termination of Gaussian 16 at Thu Jan 16 18:23:05 2025.
