 Entering Gaussian System, Link 0=g16
 Input=A_Ru_Cis_straight_CO_DFT_B3LYP_def2SVP_smd_water_T_3MC_freezedScan_2_4.gjf
 Output=A_Ru_Cis_straight_CO_DFT_B3LYP_def2SVP_smd_water_T_3MC_freezedScan_2_4.log
 Initial command:
 /cluster/apps/gaussian/g16_c02/g16/l1.exe "/beegfs/do57cig/gauss2178641/Gau-32231.inp" -scrdir="/beegfs/do57cig/gauss2178641/"
 Default CPUs for threads: 0-23
 Default is to use a total of  24 processors:
                               24 via shared-memory
                                1 via Linda
 Entering Link 1 = /cluster/apps/gaussian/g16_c02/g16/l1.exe PID=     32232.
  
 Copyright (c) 1988-2021, Gaussian, Inc.  All Rights Reserved.
  
 This is part of the Gaussian(R) 16 program.  It is based on
 the Gaussian(R) 09 system (copyright 2009, Gaussian, Inc.),
 the Gaussian(R) 03 system (copyright 2003, Gaussian, Inc.),
 the Gaussian(R) 98 system (copyright 1998, Gaussian, Inc.),
 the Gaussian(R) 94 system (copyright 1995, Gaussian, Inc.),
 the Gaussian 92(TM) system (copyright 1992, Gaussian, Inc.),
 the Gaussian 90(TM) system (copyright 1990, Gaussian, Inc.),
 the Gaussian 88(TM) system (copyright 1988, Gaussian, Inc.),
 the Gaussian 86(TM) system (copyright 1986, Carnegie Mellon
 University), and the Gaussian 82(TM) system (copyright 1983,
 Carnegie Mellon University). Gaussian is a federally registered
 trademark of Gaussian, Inc.
  
 This software contains proprietary and confidential information,
 including trade secrets, belonging to Gaussian, Inc.
  
 This software is provided under written license and may be
 used, copied, transmitted, or stored only in accord with that
 written license.
  
 The following legend is applicable only to US Government
 contracts under FAR:
  
                    RESTRICTED RIGHTS LEGEND
  
 Use, reproduction and disclosure by the US Government is
 subject to restrictions as set forth in subparagraphs (a)
 and (c) of the Commercial Computer Software - Restricted
 Rights clause in FAR 52.227-19.
  
 Gaussian, Inc.
 340 Quinnipiac St., Bldg. 40, Wallingford CT 06492
  
  
 ---------------------------------------------------------------
 Warning -- This program may not be used in any manner that
 competes with the business of Gaussian, Inc. or will provide
 assistance to any competitor of Gaussian, Inc.  The licensee
 of this program is prohibited from giving any competitor of
 Gaussian, Inc. access to this program.  By using this program,
 the user acknowledges that Gaussian, Inc. is engaged in the
 business of creating and licensing software in the field of
 computational chemistry and represents and warrants to the
 licensee that it is not a competitor of Gaussian, Inc. and that
 it will not use this program in any manner prohibited above.
 ---------------------------------------------------------------
  

 Cite this work as:
 Gaussian 16, Revision C.02,
 M. J. Frisch, G. W. Trucks, H. B. Schlegel, G. E. Scuseria, 
 M. A. Robb, J. R. Cheeseman, G. Scalmani, V. Barone, 
 G. A. Petersson, H. Nakatsuji, X. Li, M. Caricato, A. V. Marenich, 
 J. Bloino, B. G. Janesko, R. Gomperts, B. Mennucci, H. P. Hratchian, 
 J. V. Ortiz, A. F. Izmaylov, J. L. Sonnenberg, D. Williams-Young, 
 F. Ding, F. Lipparini, F. Egidi, J. Goings, B. Peng, A. Petrone, 
 T. Henderson, D. Ranasinghe, V. G. Zakrzewski, J. Gao, N. Rega, 
 G. Zheng, W. Liang, M. Hada, M. Ehara, K. Toyota, R. Fukuda, 
 J. Hasegawa, M. Ishida, T. Nakajima, Y. Honda, O. Kitao, H. Nakai, 
 T. Vreven, K. Throssell, J. A. Montgomery, Jr., J. E. Peralta, 
 F. Ogliaro, M. J. Bearpark, J. J. Heyd, E. N. Brothers, K. N. Kudin, 
 V. N. Staroverov, T. A. Keith, R. Kobayashi, J. Normand, 
 K. Raghavachari, A. P. Rendell, J. C. Burant, S. S. Iyengar, 
 J. Tomasi, M. Cossi, J. M. Millam, M. Klene, C. Adamo, R. Cammi, 
 J. W. Ochterski, R. L. Martin, K. Morokuma, O. Farkas, 
 J. B. Foresman, and D. J. Fox, Gaussian, Inc., Wallingford CT, 2019.
 
 ******************************************
 Gaussian 16:  ES64L-G16RevC.02  7-Dec-2021
                16-Jan-2025 
 ******************************************
 %chk=A_Ru_Cis_straight_CO_DFT_B3LYP_def2SVP_smd_water_T_3MC_freezedScan_2_4.chk
 %Oldchk=A_Ru_Cis_straight_CO_DFT_B3LYP_def2SVP_smd_water_T_3MC_tweaked_geom.chk
 SetSPE:  set environment variable "OMP_PROC_BIND" = "true"
 SetSPE:  set environment variable "OMP_PLACES" = "{0},{1},{2},{3},{4},{5},{6},{7},{8},{9},{10},{11},{12},{13},{14},{15},{16},{17},{18},{19},{20},{21},{22},{23}"
 Copying data from "A_Ru_Cis_straight_CO_DFT_B3LYP_def2SVP_smd_water_T_3MC_tweaked_geom.chk" to current chk file "A_Ru_Cis_straight_CO_DFT_B3LYP_def2SVP_smd_water_T_3MC_freezedScan_2_4.chk"
 IOpt=  2 FromEx=T IUOpen= 4 IOptOp= 5 NList=   0 IFRang= 0 IUIn= 4 IUOut= 2.
 ----------------------------------------------------------------------
 # ub3lyp scrf=(smd,solvent=water) def2svp empiricaldispersion=gd3bj in
 t=ultrafine scf=xqc guess=read
 ----------------------------------------------------------------------
 1/38=1,172=1/1;
 2/12=2,17=6,18=5,40=1/2;
 3/5=43,7=101,11=2,25=1,30=1,70=32201,72=1,74=-5,75=-5,116=2,124=41/1,2,3;
 4/5=1/1;
 5/5=2,8=3,13=1,38=6,53=1/2,8;
 6/7=2,8=2,9=2,10=2,28=1/1;
 99/5=1,9=1/99;
 -----------------------------------------------------------------
 A_Ru_Cis_DFT_B3LYP_def2svp_smd_water_T_Opt_3MLCT_from_3MLCT_trans
 -----------------------------------------------------------------
 Symbolic Z-matrix:
 Charge =  0 Multiplicity = 3
 P                     2.41287  -0.09445  -0.14427 
 N                    -0.01475   1.67011  -0.06783 
 C                     2.18893   1.49713  -1.07451 
 H                     3.11357   2.08778  -1.10925 
 H                     1.95374   1.18983  -2.10723 
 O                    -0.14264  -1.08023  -2.14018 
 P                    -2.42832  -0.08809   0.05285 
 C                     1.05418   2.32638  -0.53428 
 C                     1.11454   3.72489  -0.50488 
 H                     1.99296   4.24178  -0.8947 
 C                     0.04121   4.42916   0.04221 
 H                     0.06246   5.52053   0.08467 
 C                    -1.05745   3.7268    0.53842 
 H                    -1.91242   4.24591   0.9748 
 C                    -1.05312   2.32834   0.45994 
 C                    -2.21296   1.51017   0.96894 
 H                    -3.13223   2.11112   0.97092 
 H                    -2.01158   1.21929   2.01409 
 Ru                   -0.01216  -1.01071  -0.05204 
 H                     0.69263  -1.43269  -2.46465 
 C                    -3.25187   0.41483  -1.59784 
 C                    -3.68924  -1.02651   1.14174 
 C                     3.67297  -1.03308  -1.23516 
 C                     3.23895   0.41126   1.50261 
 C                     2.31678   1.43515   2.19419 
 H                     2.31506   2.40048   1.67103 
 H                     1.27969   1.09286   2.28422 
 H                     2.70225   1.61289   3.21134 
 C                     3.38249  -0.83161   2.40377 
 H                     3.52116  -0.50317   3.44683 
 H                     2.5012   -1.48389   2.37483 
 H                     4.25606  -1.43458   2.13164 
 C                     4.61489   1.06906   1.3283 
 H                     4.96074   1.42544   2.3136 
 H                     5.36867   0.36483   0.95343 
 H                     4.57881   1.94031   0.65747 
 C                     4.74511  -0.11475  -1.84278 
 H                     5.32271   0.43253  -1.08959 
 H                     5.45173  -0.73695  -2.41789 
 H                     4.30851   0.61248  -2.54204 
 C                     4.33071  -2.15353  -0.41795 
 H                     4.87364  -2.82209  -1.10618 
 H                     5.05768  -1.76684   0.3071 
 H                     3.58406  -2.75868   0.11881 
 C                     2.90649  -1.68714  -2.39423 
 H                     2.18531  -2.43269  -2.03005 
 H                     2.39151  -0.94284  -3.01938 
 H                     3.62757  -2.21171  -3.04201 
 C                    -3.30587  -0.81202  -2.52674 
 H                    -3.62278  -0.48034  -3.53017 
 H                    -2.31853  -1.28297  -2.615 
 H                    -4.02958  -1.56193  -2.18718 
 C                    -4.65929   1.0031   -1.43317 
 H                    -5.00037   1.37308  -2.41529 
 H                    -5.38874   0.25561  -1.09525 
 H                    -4.67761   1.85483  -0.73672 
 C                    -2.36523   1.48708  -2.25899 
 H                    -2.38909   2.43881  -1.71058 
 H                    -1.32231   1.16439  -2.35618 
 H                    -2.75854   1.68174  -3.27055 
 C                    -2.92324  -1.65842   2.31252 
 H                    -2.18595  -2.39536   1.96655 
 H                    -2.40875  -0.90796   2.92696 
 H                    -3.646    -2.18045   2.96126 
 C                    -4.77689  -0.11411   1.73112 
 H                    -5.36247   0.41004   0.96803 
 H                    -5.47445  -0.73612   2.31738 
 H                    -4.3525    0.63299   2.41706 
 C                    -4.32708  -2.16304   0.3303 
 H                    -4.88209  -2.82163   1.01863 
 H                    -5.03944  -1.79445  -0.41883 
 H                    -3.56632  -2.77505  -0.17851 
 O                     0.02282  -3.39821  -0.29409 
 C                     0.05929  -1.04637   1.76685 
 H                    -0.04054  -3.4003   -1.2649 
 O                     0.12708  -1.08764   2.93618 
 
 Stoichiometry    C24H45NO3P2Ru(3)
 Framework group  C1[X(C24H45NO3P2Ru)]
 Deg. of freedom   222
 Full point group                 C1      NOp   1
 Largest Abelian subgroup         C1      NOp   1
 Largest concise Abelian subgroup C1      NOp   1
                         Standard orientation:                         
 ---------------------------------------------------------------------
 Center     Atomic      Atomic             Coordinates (Angstroms)
 Number     Number       Type             X           Y           Z
 ---------------------------------------------------------------------
      1         15           0        2.412767   -0.087665   -0.142720
      2          7           0       -0.015053    1.677188   -0.081099
      3          6           0        2.188657    1.496040   -1.086267
      4          1           0        3.113224    2.086490   -1.125931
      5          1           0        1.953516    1.180075   -2.116373
      6          8           0       -0.142595   -1.090422   -2.130347
      7         15           0       -2.428426   -0.080222    0.054273
      8          6           0        1.053804    2.329654   -0.553010
      9          6           0        1.114000    3.728368   -0.535318
     10          1           0        1.992362    4.242082   -0.929441
     11          6           0        0.040578    4.437069    0.005836
     12          1           0        0.061701    5.528755    0.039153
     13          6           0       -1.058005    3.738757    0.507900
     14          1           0       -1.913044    4.261402    0.939905
     15          6           0       -1.053512    2.339691    0.441131
     16          6           0       -2.213267    1.525680    0.956944
     17          1           0       -3.132607    2.126516    0.953881
     18          1           0       -2.011862    1.243582    2.004495
     19         44           0       -0.012157   -1.003404   -0.042856
     20          1           0        0.692722   -1.445491   -2.451839
     21          6           0       -3.252006    0.408763   -1.600589
     22          6           0       -3.689252   -1.009636    1.150960
     23          6           0        3.672993   -1.035255   -1.225703
     24          6           0        3.238766    0.431913    1.499873
     25          6           0        2.316464    1.461451    2.182845
     26          1           0        2.314644    2.422362    1.651613
     27          1           0        1.279415    1.119806    2.275724
     28          1           0        2.701897    1.647744    3.198470
     29          6           0        3.382437   -0.803355    2.411409
     30          1           0        3.521056   -0.466171    3.451684
     31          1           0        2.501227   -1.455950    2.387925
     32          1           0        4.256081   -1.408474    2.144356
     33          6           0        4.614630    1.088386    1.320079
     34          1           0        4.960429    1.453050    2.302366
     35          1           0        5.368497    0.381138    0.951129
     36          1           0        4.578457    1.953993    0.641974
     37          6           0        4.745037   -0.121920   -1.840971
     38          1           0        5.322559    0.431723   -1.092382
     39          1           0        5.451734   -0.748827   -2.410844
     40          1           0        4.308360    0.599379   -2.546306
     41          6           0        4.330850   -2.148743   -0.399125
     42          1           0        4.873870   -2.822977   -1.081731
     43          1           0        5.057771   -1.755906    0.322665
     44          1           0        3.584270   -2.749459    0.142670
     45          6           0        2.906612   -1.699079   -2.379260
     46          1           0        2.185508   -2.441640   -2.008865
     47          1           0        2.391550   -0.960105   -3.010627
     48          1           0        3.627762   -2.228970   -3.022622
     49          6           0       -3.305847   -0.825834   -2.519177
     50          1           0       -3.622787   -0.502596   -3.525361
     51          1           0       -2.318460   -1.297390   -2.603480
     52          1           0       -4.029476   -1.572954   -2.173364
     53          6           0       -4.659498    0.998220   -1.440864
     54          1           0       -5.000605    1.359928   -2.426058
     55          1           0       -5.388869    0.253505   -1.096712
     56          1           0       -4.677931    1.855753   -0.751577
     57          6           0       -2.365489    1.475544   -2.270675
     58          1           0       -2.389466    2.431822   -1.730254
     59          1           0       -1.322525    1.152169   -2.365148
     60          1           0       -2.758805    1.661682   -3.283834
     61          6           0       -2.923190   -1.631632    2.327006
     62          1           0       -2.185813   -2.371358    1.987220
     63          1           0       -2.408803   -0.875999    2.935147
     64          1           0       -3.645898   -2.148302    2.980076
     65          6           0       -4.777017   -0.092460    1.732665
     66          1           0       -5.362648    0.425209    0.965205
     67          1           0       -5.474515   -0.709626    2.324106
     68          1           0       -4.352724    0.660399    2.412331
     69          6           0       -4.326947   -2.152998    0.349057
     70          1           0       -4.881884   -2.805871    1.042873
     71          1           0       -5.039340   -1.790775   -0.403145
     72          1           0       -3.566102   -2.769154   -0.154603
     73          8           0        0.023110   -3.392850   -0.264908
     74          6           0        0.059277   -1.023824    1.776266
     75          1           0       -0.040238   -3.403074   -1.235666
     76          8           0        0.127048   -1.055292    2.945905
 ---------------------------------------------------------------------
 Rotational constants (GHZ):           0.1854646           0.1023109           0.0923348
 Standard basis: def2SVP (5D, 7F)
 There are   719 symmetry adapted cartesian basis functions of A   symmetry.
 There are   684 symmetry adapted basis functions of A   symmetry.
   684 basis functions,  1154 primitive gaussians,   719 cartesian basis functions
   134 alpha electrons      132 beta electrons
       nuclear repulsion energy      4447.7846879875 Hartrees.
 NAtoms=   76 NActive=   76 NUniq=   76 SFac= 1.00D+00 NAtFMM=   60 NAOKFM=T Big=T
 Integral buffers will be    131072 words long.
 Raffenetti 2 integral format.
 Two-electron integral symmetry is turned on.
 Nuclear repulsion after empirical dispersion term =     4447.5616960884 Hartrees.
 ------------------------------------------------------------------------------
 Polarizable Continuum Model (PCM)
 =================================
 Model                : PCM.
 Atomic radii         : SMD-Coulomb.
 Polarization charges : Total charges.
 Charge compensation  : None.
 Solution method      : On-the-fly selection.
 Cavity type          : VdW (van der Waals Surface) (Alpha=1.000).
 Cavity algorithm     : GePol (No added spheres)
                        Default sphere list used, NSphG=   76.
                        Lebedev-Laikov grids with approx.  5.0 points / Ang**2.
                        Smoothing algorithm: York/Karplus (Gamma=1.0000).
                        Polarization charges: spherical gaussians, with
                                              point-specific exponents (IZeta= 3).
                        Self-potential: point-specific (ISelfS= 7).
                        Self-field    : sphere-specific E.n sum rule (ISelfD= 2).
 Solvent              : Water, Eps=  78.355300 Eps(inf)=   1.777849
 ------------------------------------------------------------------------------
 ------------------------------------------------------------------------------
 Atomic radii for non-electrostatic terms: SMD-CDS.
 ------------------------------------------------------------------------------
 Nuclear repulsion after PCM non-electrostatic terms =     4447.5806523907 Hartrees.
 One-electron integrals computed using PRISM.
   1 Symmetry operations used in ECPInt.
 ECPInt:  NShTT=   54615 NPrTT=  190596 LenC2=   47849 LenP2D=  112824.
 LDataN:  DoStor=T MaxTD1= 7 Len=  274
 NBasis=   684 RedAO= T EigKep=  4.90D-04  NBF=   684
 NBsUse=   684 1.00D-06 EigRej= -1.00D+00 NBFU=   684
 Defaulting to unpruned grid for atomic number  44.
 Initial guess from the checkpoint file:  "A_Ru_Cis_straight_CO_DFT_B3LYP_def2SVP_smd_water_T_3MC_freezedScan_2_4.chk"
 B after Tr=    -0.000000   -0.000000   -0.000000
         Rot=    0.999991    0.004344    0.000010   -0.000074 Ang=   0.50 deg.
 Initial guess <Sx>= 0.0000 <Sy>= 0.0000 <Sz>= 1.0000 <S**2>= 2.0204 S= 1.0068
 Requested convergence on RMS density matrix=1.00D-08 within  32 cycles.
 Requested convergence on MAX density matrix=1.00D-06.
 Requested convergence on             energy=1.00D-06.
 No special actions if energy rises.
 Defaulting to unpruned grid for atomic number  44.
 Defaulting to unpruned grid for atomic number  44.
 Defaulting to unpruned grid for atomic number  44.
 Defaulting to unpruned grid for atomic number  44.
 Defaulting to unpruned grid for atomic number  44.
 Defaulting to unpruned grid for atomic number  44.
 Defaulting to unpruned grid for atomic number  44.
 Defaulting to unpruned grid for atomic number  44.
 Defaulting to unpruned grid for atomic number  44.
 Defaulting to unpruned grid for atomic number  44.
 Defaulting to unpruned grid for atomic number  44.
 Defaulting to unpruned grid for atomic number  44.
 Defaulting to unpruned grid for atomic number  44.
 Defaulting to unpruned grid for atomic number  44.
 Defaulting to unpruned grid for atomic number  44.
 Defaulting to unpruned grid for atomic number  44.
 Defaulting to unpruned grid for atomic number  44.
 Defaulting to unpruned grid for atomic number  44.
 Defaulting to unpruned grid for atomic number  44.
 Defaulting to unpruned grid for atomic number  44.
 Defaulting to unpruned grid for atomic number  44.
 Defaulting to unpruned grid for atomic number  44.
 Defaulting to unpruned grid for atomic number  44.
 Defaulting to unpruned grid for atomic number  44.
 Inv3:  Mode=1 IEnd=    67431243.
 Iteration    1 A*A^-1 deviation from unit magnitude is 3.77D-15 for   1624.
 Iteration    1 A*A^-1 deviation from orthogonality  is 3.33D-15 for   3226    196.
 Iteration    1 A^-1*A deviation from unit magnitude is 3.55D-15 for    373.
 Iteration    1 A^-1*A deviation from orthogonality  is 3.71D-13 for   3199   3198.
 Error on total polarization charges =  0.07768
 SCF Done:  E(UB3LYP) =  -1998.93915367     A.U. after   19 cycles
            NFock= 19  Conv=0.20D-08     -V/T= 2.0404
 <Sx>= 0.0000 <Sy>= 0.0000 <Sz>= 1.0000 <S**2>= 2.0223 S= 1.0074
 <L.S>=  0.00000000000    
 SMD-CDS (non-electrostatic) energy       (kcal/mol) =      11.90
 (included in total energy above)
 Annihilation of the first spin contaminant:
 S**2 before annihilation     2.0223,   after     2.0003
 QCSCF skips out because SCF is already converged.

 **********************************************************************

            Population analysis using the SCF Density.

 **********************************************************************

 Orbital symmetries:
 Alpha Orbitals:
       Occupied  (A) (A) (A) (A) (A) (A) (A) (A) (A) (A) (A) (A)
                 (A) (A) (A) (A) (A) (A) (A) (A) (A) (A) (A) (A)
                 (A) (A) (A) (A) (A) (A) (A) (A) (A) (A) (A) (A)
                 (A) (A) (A) (A) (A) (A) (A) (A) (A) (A) (A) (A)
                 (A) (A) (A) (A) (A) (A) (A) (A) (A) (A) (A) (A)
                 (A) (A) (A) (A) (A) (A) (A) (A) (A) (A) (A) (A)
                 (A) (A) (A) (A) (A) (A) (A) (A) (A) (A) (A) (A)
                 (A) (A) (A) (A) (A) (A) (A) (A) (A) (A) (A) (A)
                 (A) (A) (A) (A) (A) (A) (A) (A) (A) (A) (A) (A)
                 (A) (A) (A) (A) (A) (A) (A) (A) (A) (A) (A) (A)
                 (A) (A) (A) (A) (A) (A) (A) (A) (A) (A) (A) (A)
                 (A) (A)
       Virtual   (A) (A) (A) (A) (A) (A) (A) (A) (A) (A) (A) (A)
                 (A) (A) (A) (A) (A) (A) (A) (A) (A) (A) (A) (A)
                 (A) (A) (A) (A) (A) (A) (A) (A) (A) (A) (A) (A)
                 (A) (A) (A) (A) (A) (A) (A) (A) (A) (A) (A) (A)
                 (A) (A) (A) (A) (A) (A) (A) (A) (A) (A) (A) (A)
                 (A) (A) (A) (A) (A) (A) (A) (A) (A) (A) (A) (A)
                 (A) (A) (A) (A) (A) (A) (A) (A) (A) (A) (A) (A)
                 (A) (A) (A) (A) (A) (A) (A) (A) (A) (A) (A) (A)
                 (A) (A) (A) (A) (A) (A) (A) (A) (A) (A) (A) (A)
                 (A) (A) (A) (A) (A) (A) (A) (A) (A) (A) (A) (A)
                 (A) (A) (A) (A) (A) (A) (A) (A) (A) (A) (A) (A)
                 (A) (A) (A) (A) (A) (A) (A) (A) (A) (A) (A) (A)
                 (A) (A) (A) (A) (A) (A) (A) (A) (A) (A) (A) (A)
                 (A) (A) (A) (A) (A) (A) (A) (A) (A) (A) (A) (A)
                 (A) (A) (A) (A) (A) (A) (A) (A) (A) (A) (A) (A)
                 (A) (A) (A) (A) (A) (A) (A) (A) (A) (A) (A) (A)
                 (A) (A) (A) (A) (A) (A) (A) (A) (A) (A) (A) (A)
                 (A) (A) (A) (A) (A) (A) (A) (A) (A) (A) (A) (A)
                 (A) (A) (A) (A) (A) (A) (A) (A) (A) (A) (A) (A)
                 (A) (A) (A) (A) (A) (A) (A) (A) (A) (A) (A) (A)
                 (A) (A) (A) (A) (A) (A) (A) (A) (A) (A) (A) (A)
                 (A) (A) (A) (A) (A) (A) (A) (A) (A) (A) (A) (A)
                 (A) (A) (A) (A) (A) (A) (A) (A) (A) (A) (A) (A)
                 (A) (A) (A) (A) (A) (A) (A) (A) (A) (A) (A) (A)
                 (A) (A) (A) (A) (A) (A) (A) (A) (A) (A) (A) (A)
                 (A) (A) (A) (A) (A) (A) (A) (A) (A) (A) (A) (A)
                 (A) (A) (A) (A) (A) (A) (A) (A) (A) (A) (A) (A)
                 (A) (A) (A) (A) (A) (A) (A) (A) (A) (A) (A) (A)
                 (A) (A) (A) (A) (A) (A) (A) (A) (A) (A) (A) (A)
                 (A) (A) (A) (A) (A) (A) (A) (A) (A) (A) (A) (A)
                 (A) (A) (A) (A) (A) (A) (A) (A) (A) (A) (A) (A)
                 (A) (A) (A) (A) (A) (A) (A) (A) (A) (A) (A) (A)
                 (A) (A) (A) (A) (A) (A) (A) (A) (A) (A) (A) (A)
                 (A) (A) (A) (A) (A) (A) (A) (A) (A) (A) (A) (A)
                 (A) (A) (A) (A) (A) (A) (A) (A) (A) (A) (A) (A)
                 (A) (A) (A) (A) (A) (A) (A) (A) (A) (A) (A) (A)
                 (A) (A) (A) (A) (A) (A) (A) (A) (A) (A) (A) (A)
                 (A) (A) (A) (A) (A) (A) (A) (A) (A) (A) (A) (A)
                 (A) (A) (A) (A) (A) (A) (A) (A) (A) (A) (A) (A)
                 (A) (A) (A) (A) (A) (A) (A) (A) (A) (A) (A) (A)
                 (A) (A) (A) (A) (A) (A) (A) (A) (A) (A) (A) (A)
                 (A) (A) (A) (A) (A) (A) (A) (A) (A) (A) (A) (A)
                 (A) (A) (A) (A) (A) (A) (A) (A) (A) (A) (A) (A)
                 (A) (A) (A) (A) (A) (A) (A) (A) (A) (A) (A) (A)
                 (A) (A) (A) (A) (A) (A) (A) (A) (A) (A) (A) (A)
                 (A) (A) (A) (A) (A) (A) (A) (A) (A) (A)
 Beta  Orbitals:
       Occupied  (A) (A) (A) (A) (A) (A) (A) (A) (A) (A) (A) (A)
                 (A) (A) (A) (A) (A) (A) (A) (A) (A) (A) (A) (A)
                 (A) (A) (A) (A) (A) (A) (A) (A) (A) (A) (A) (A)
                 (A) (A) (A) (A) (A) (A) (A) (A) (A) (A) (A) (A)
                 (A) (A) (A) (A) (A) (A) (A) (A) (A) (A) (A) (A)
                 (A) (A) (A) (A) (A) (A) (A) (A) (A) (A) (A) (A)
                 (A) (A) (A) (A) (A) (A) (A) (A) (A) (A) (A) (A)
                 (A) (A) (A) (A) (A) (A) (A) (A) (A) (A) (A) (A)
                 (A) (A) (A) (A) (A) (A) (A) (A) (A) (A) (A) (A)
                 (A) (A) (A) (A) (A) (A) (A) (A) (A) (A) (A) (A)
                 (A) (A) (A) (A) (A) (A) (A) (A) (A) (A) (A) (A)
       Virtual   (A) (A) (A) (A) (A) (A) (A) (A) (A) (A) (A) (A)
                 (A) (A) (A) (A) (A) (A) (A) (A) (A) (A) (A) (A)
                 (A) (A) (A) (A) (A) (A) (A) (A) (A) (A) (A) (A)
                 (A) (A) (A) (A) (A) (A) (A) (A) (A) (A) (A) (A)
                 (A) (A) (A) (A) (A) (A) (A) (A) (A) (A) (A) (A)
                 (A) (A) (A) (A) (A) (A) (A) (A) (A) (A) (A) (A)
                 (A) (A) (A) (A) (A) (A) (A) (A) (A) (A) (A) (A)
                 (A) (A) (A) (A) (A) (A) (A) (A) (A) (A) (A) (A)
                 (A) (A) (A) (A) (A) (A) (A) (A) (A) (A) (A) (A)
                 (A) (A) (A) (A) (A) (A) (A) (A) (A) (A) (A) (A)
                 (A) (A) (A) (A) (A) (A) (A) (A) (A) (A) (A) (A)
                 (A) (A) (A) (A) (A) (A) (A) (A) (A) (A) (A) (A)
                 (A) (A) (A) (A) (A) (A) (A) (A) (A) (A) (A) (A)
                 (A) (A) (A) (A) (A) (A) (A) (A) (A) (A) (A) (A)
                 (A) (A) (A) (A) (A) (A) (A) (A) (A) (A) (A) (A)
                 (A) (A) (A) (A) (A) (A) (A) (A) (A) (A) (A) (A)
                 (A) (A) (A) (A) (A) (A) (A) (A) (A) (A) (A) (A)
                 (A) (A) (A) (A) (A) (A) (A) (A) (A) (A) (A) (A)
                 (A) (A) (A) (A) (A) (A) (A) (A) (A) (A) (A) (A)
                 (A) (A) (A) (A) (A) (A) (A) (A) (A) (A) (A) (A)
                 (A) (A) (A) (A) (A) (A) (A) (A) (A) (A) (A) (A)
                 (A) (A) (A) (A) (A) (A) (A) (A) (A) (A) (A) (A)
                 (A) (A) (A) (A) (A) (A) (A) (A) (A) (A) (A) (A)
                 (A) (A) (A) (A) (A) (A) (A) (A) (A) (A) (A) (A)
                 (A) (A) (A) (A) (A) (A) (A) (A) (A) (A) (A) (A)
                 (A) (A) (A) (A) (A) (A) (A) (A) (A) (A) (A) (A)
                 (A) (A) (A) (A) (A) (A) (A) (A) (A) (A) (A) (A)
                 (A) (A) (A) (A) (A) (A) (A) (A) (A) (A) (A) (A)
                 (A) (A) (A) (A) (A) (A) (A) (A) (A) (A) (A) (A)
                 (A) (A) (A) (A) (A) (A) (A) (A) (A) (A) (A) (A)
                 (A) (A) (A) (A) (A) (A) (A) (A) (A) (A) (A) (A)
                 (A) (A) (A) (A) (A) (A) (A) (A) (A) (A) (A) (A)
                 (A) (A) (A) (A) (A) (A) (A) (A) (A) (A) (A) (A)
                 (A) (A) (A) (A) (A) (A) (A) (A) (A) (A) (A) (A)
                 (A) (A) (A) (A) (A) (A) (A) (A) (A) (A) (A) (A)
                 (A) (A) (A) (A) (A) (A) (A) (A) (A) (A) (A) (A)
                 (A) (A) (A) (A) (A) (A) (A) (A) (A) (A) (A) (A)
                 (A) (A) (A) (A) (A) (A) (A) (A) (A) (A) (A) (A)
                 (A) (A) (A) (A) (A) (A) (A) (A) (A) (A) (A) (A)
                 (A) (A) (A) (A) (A) (A) (A) (A) (A) (A) (A) (A)
                 (A) (A) (A) (A) (A) (A) (A) (A) (A) (A) (A) (A)
                 (A) (A) (A) (A) (A) (A) (A) (A) (A) (A) (A) (A)
                 (A) (A) (A) (A) (A) (A) (A) (A) (A) (A) (A) (A)
                 (A) (A) (A) (A) (A) (A) (A) (A) (A) (A) (A) (A)
                 (A) (A) (A) (A) (A) (A) (A) (A) (A) (A) (A) (A)
                 (A) (A) (A) (A) (A) (A) (A) (A) (A) (A) (A) (A)
 The electronic state is 3-A.
 Alpha  occ. eigenvalues --  -77.08056 -77.07772 -19.17423 -19.06542 -19.06435
 Alpha  occ. eigenvalues --  -14.33763 -10.26376 -10.23893 -10.23858 -10.20788
 Alpha  occ. eigenvalues --  -10.20733 -10.20687 -10.20526 -10.20368 -10.19571
 Alpha  occ. eigenvalues --  -10.19567 -10.19410 -10.19366 -10.17576 -10.17412
 Alpha  occ. eigenvalues --  -10.17410 -10.17346 -10.17329 -10.17267 -10.17231
 Alpha  occ. eigenvalues --  -10.17200 -10.17077 -10.17069 -10.16922 -10.16432
 Alpha  occ. eigenvalues --   -6.57237  -6.56962  -4.73843  -4.73787  -4.73570
 Alpha  occ. eigenvalues --   -4.73569  -4.73511  -4.73292  -3.05245  -1.89892
 Alpha  occ. eigenvalues --   -1.89745  -1.87995  -1.07676  -0.95328  -0.88365
 Alpha  occ. eigenvalues --   -0.86689  -0.82251  -0.81704  -0.79828  -0.79788
 Alpha  occ. eigenvalues --   -0.79539  -0.79290  -0.73568  -0.69936  -0.67956
 Alpha  occ. eigenvalues --   -0.67835  -0.67758  -0.67478  -0.66988  -0.66919
 Alpha  occ. eigenvalues --   -0.66699  -0.66591  -0.63720  -0.62845  -0.59588
 Alpha  occ. eigenvalues --   -0.59335  -0.54326  -0.54013  -0.53899  -0.51509
 Alpha  occ. eigenvalues --   -0.51189  -0.50133  -0.49419  -0.47027  -0.46830
 Alpha  occ. eigenvalues --   -0.45595  -0.45300  -0.44858  -0.44592  -0.44550
 Alpha  occ. eigenvalues --   -0.44192  -0.43879  -0.43735  -0.43097  -0.42997
 Alpha  occ. eigenvalues --   -0.42708  -0.42481  -0.42155  -0.42042  -0.41499
 Alpha  occ. eigenvalues --   -0.41330  -0.41101  -0.40342  -0.39943  -0.39050
 Alpha  occ. eigenvalues --   -0.38819  -0.38599  -0.38044  -0.37709  -0.37388
 Alpha  occ. eigenvalues --   -0.37209  -0.37130  -0.37062  -0.36868  -0.36636
 Alpha  occ. eigenvalues --   -0.36207  -0.35789  -0.35476  -0.35418  -0.34755
 Alpha  occ. eigenvalues --   -0.34409  -0.34079  -0.33628  -0.32964  -0.32655
 Alpha  occ. eigenvalues --   -0.32555  -0.32250  -0.32083  -0.31487  -0.31248
 Alpha  occ. eigenvalues --   -0.30833  -0.29907  -0.29313  -0.29093  -0.28784
 Alpha  occ. eigenvalues --   -0.28562  -0.27753  -0.26224  -0.25785  -0.25191
 Alpha  occ. eigenvalues --   -0.24261  -0.21818  -0.20244  -0.16656
 Alpha virt. eigenvalues --   -0.03863  -0.02621  -0.02293   0.00745   0.01586
 Alpha virt. eigenvalues --    0.04473   0.04708   0.05461   0.06177   0.06256
 Alpha virt. eigenvalues --    0.07382   0.07608   0.07958   0.08265   0.08527
 Alpha virt. eigenvalues --    0.08710   0.09227   0.09726   0.10104   0.10424
 Alpha virt. eigenvalues --    0.10643   0.10979   0.11378   0.11894   0.12336
 Alpha virt. eigenvalues --    0.12354   0.12762   0.13419   0.13589   0.13636
 Alpha virt. eigenvalues --    0.13928   0.14064   0.14106   0.14900   0.14934
 Alpha virt. eigenvalues --    0.15277   0.15486   0.16100   0.16289   0.16641
 Alpha virt. eigenvalues --    0.16852   0.17068   0.17539   0.17727   0.17965
 Alpha virt. eigenvalues --    0.18010   0.18523   0.18800   0.19244   0.19871
 Alpha virt. eigenvalues --    0.20190   0.20260   0.20714   0.20824   0.21126
 Alpha virt. eigenvalues --    0.21198   0.21340   0.21667   0.21817   0.22230
 Alpha virt. eigenvalues --    0.22758   0.23234   0.23514   0.24362   0.24660
 Alpha virt. eigenvalues --    0.24855   0.25332   0.25747   0.26016   0.26213
 Alpha virt. eigenvalues --    0.26762   0.27526   0.28035   0.28779   0.29892
 Alpha virt. eigenvalues --    0.30848   0.31297   0.31608   0.32565   0.34547
 Alpha virt. eigenvalues --    0.35637   0.35937   0.36490   0.37916   0.38987
 Alpha virt. eigenvalues --    0.39575   0.39882   0.40614   0.40714   0.40939
 Alpha virt. eigenvalues --    0.41305   0.41751   0.42475   0.43069   0.43156
 Alpha virt. eigenvalues --    0.43626   0.44145   0.44922   0.45597   0.45774
 Alpha virt. eigenvalues --    0.46432   0.46825   0.48265   0.48586   0.49012
 Alpha virt. eigenvalues --    0.49239   0.50170   0.51827   0.52412   0.52544
 Alpha virt. eigenvalues --    0.52730   0.53493   0.53528   0.54077   0.54257
 Alpha virt. eigenvalues --    0.54571   0.55617   0.56124   0.56639   0.57540
 Alpha virt. eigenvalues --    0.58206   0.58277   0.58459   0.59090   0.59550
 Alpha virt. eigenvalues --    0.59917   0.60126   0.60599   0.61245   0.61428
 Alpha virt. eigenvalues --    0.62081   0.62350   0.62422   0.63022   0.63298
 Alpha virt. eigenvalues --    0.63498   0.63744   0.64543   0.64647   0.64915
 Alpha virt. eigenvalues --    0.65311   0.65395   0.65775   0.65929   0.66041
 Alpha virt. eigenvalues --    0.66250   0.66441   0.66776   0.67213   0.67251
 Alpha virt. eigenvalues --    0.67531   0.67907   0.68182   0.68475   0.68611
 Alpha virt. eigenvalues --    0.68842   0.68918   0.69171   0.69378   0.69478
 Alpha virt. eigenvalues --    0.69856   0.70591   0.70613   0.70874   0.71167
 Alpha virt. eigenvalues --    0.71324   0.71384   0.71506   0.72287   0.72640
 Alpha virt. eigenvalues --    0.72666   0.72931   0.73296   0.73468   0.73514
 Alpha virt. eigenvalues --    0.73659   0.73926   0.74485   0.74860   0.75131
 Alpha virt. eigenvalues --    0.75342   0.75647   0.76067   0.76314   0.76668
 Alpha virt. eigenvalues --    0.76974   0.77586   0.78144   0.78270   0.78674
 Alpha virt. eigenvalues --    0.78713   0.79378   0.79634   0.80496   0.80629
 Alpha virt. eigenvalues --    0.81040   0.81394   0.81726   0.82180   0.82324
 Alpha virt. eigenvalues --    0.82801   0.83282   0.83622   0.84402   0.84952
 Alpha virt. eigenvalues --    0.85600   0.86109   0.86740   0.87396   0.87917
 Alpha virt. eigenvalues --    0.88673   0.89395   0.89551   0.90107   0.91261
 Alpha virt. eigenvalues --    0.91713   0.91963   0.93361   0.94618   0.95171
 Alpha virt. eigenvalues --    0.95977   0.96081   0.97640   0.99377   1.00181
 Alpha virt. eigenvalues --    1.01892   1.02256   1.02946   1.03246   1.03714
 Alpha virt. eigenvalues --    1.04687   1.05374   1.06386   1.06445   1.07607
 Alpha virt. eigenvalues --    1.08116   1.08460   1.09552   1.10579   1.11640
 Alpha virt. eigenvalues --    1.12322   1.12881   1.13250   1.14881   1.15980
 Alpha virt. eigenvalues --    1.16361   1.16842   1.17172   1.18685   1.19027
 Alpha virt. eigenvalues --    1.19291   1.20353   1.20704   1.21137   1.22186
 Alpha virt. eigenvalues --    1.22787   1.23230   1.24184   1.24688   1.24803
 Alpha virt. eigenvalues --    1.25499   1.25992   1.27331   1.28071   1.28837
 Alpha virt. eigenvalues --    1.29206   1.29626   1.30163   1.30606   1.31404
 Alpha virt. eigenvalues --    1.32109   1.33193   1.34567   1.36111   1.37459
 Alpha virt. eigenvalues --    1.37755   1.39327   1.41957   1.43818   1.44535
 Alpha virt. eigenvalues --    1.46640   1.48229   1.49376   1.49584   1.50094
 Alpha virt. eigenvalues --    1.51566   1.51865   1.52803   1.53269   1.53588
 Alpha virt. eigenvalues --    1.54063   1.54277   1.54698   1.55130   1.55673
 Alpha virt. eigenvalues --    1.56206   1.56516   1.56738   1.57272   1.57862
 Alpha virt. eigenvalues --    1.58354   1.58589   1.58744   1.59115   1.59454
 Alpha virt. eigenvalues --    1.59621   1.60227   1.61061   1.61607   1.62058
 Alpha virt. eigenvalues --    1.62662   1.63118   1.63669   1.64127   1.64704
 Alpha virt. eigenvalues --    1.65450   1.65805   1.66333   1.66521   1.67151
 Alpha virt. eigenvalues --    1.67945   1.68650   1.69629   1.69738   1.70940
 Alpha virt. eigenvalues --    1.72072   1.72770   1.73826   1.74558   1.75293
 Alpha virt. eigenvalues --    1.76378   1.76844   1.77028   1.77400   1.77540
 Alpha virt. eigenvalues --    1.78454   1.78862   1.79073   1.79151   1.79297
 Alpha virt. eigenvalues --    1.79618   1.80194   1.80327   1.81135   1.81421
 Alpha virt. eigenvalues --    1.81624   1.82451   1.82720   1.83206   1.83637
 Alpha virt. eigenvalues --    1.83844   1.84473   1.84551   1.84785   1.85306
 Alpha virt. eigenvalues --    1.85740   1.85883   1.86174   1.86459   1.87036
 Alpha virt. eigenvalues --    1.87359   1.87852   1.88277   1.88524   1.89044
 Alpha virt. eigenvalues --    1.89364   1.90542   1.90665   1.91260   1.91608
 Alpha virt. eigenvalues --    1.92577   1.92785   1.93117   1.93478   1.93679
 Alpha virt. eigenvalues --    1.94041   1.94067   1.94377   1.94523   1.94784
 Alpha virt. eigenvalues --    1.95429   1.95832   1.96051   1.96128   1.97003
 Alpha virt. eigenvalues --    1.97561   1.98209   1.98644   1.99013   1.99399
 Alpha virt. eigenvalues --    1.99888   2.00691   2.00909   2.01141   2.01680
 Alpha virt. eigenvalues --    2.02343   2.02455   2.02643   2.03789   2.03917
 Alpha virt. eigenvalues --    2.04427   2.05991   2.07378   2.08187   2.09834
 Alpha virt. eigenvalues --    2.10885   2.12068   2.15071   2.15837   2.16155
 Alpha virt. eigenvalues --    2.16680   2.16890   2.17639   2.17879   2.18369
 Alpha virt. eigenvalues --    2.18594   2.18951   2.19180   2.19689   2.20078
 Alpha virt. eigenvalues --    2.20572   2.20906   2.21513   2.22285   2.22692
 Alpha virt. eigenvalues --    2.22769   2.23313   2.24148   2.24292   2.24942
 Alpha virt. eigenvalues --    2.25198   2.27323   2.28251   2.28971   2.29773
 Alpha virt. eigenvalues --    2.30411   2.35144   2.38062   2.38517   2.38948
 Alpha virt. eigenvalues --    2.39300   2.40037   2.40620   2.40941   2.41341
 Alpha virt. eigenvalues --    2.42146   2.42229   2.42622   2.42989   2.43278
 Alpha virt. eigenvalues --    2.44428   2.44912   2.45938   2.47074   2.47194
 Alpha virt. eigenvalues --    2.47705   2.48982   2.50286   2.51348   2.52268
 Alpha virt. eigenvalues --    2.55291   2.55573   2.55985   2.56294   2.56443
 Alpha virt. eigenvalues --    2.56517   2.56714   2.57542   2.58367   2.61363
 Alpha virt. eigenvalues --    2.62160   2.62476   2.62815   2.63000   2.63516
 Alpha virt. eigenvalues --    2.63744   2.63883   2.64068   2.64320   2.64938
 Alpha virt. eigenvalues --    2.65054   2.65326   2.65977   2.66020   2.67686
 Alpha virt. eigenvalues --    2.69282   2.72479   2.72738   2.72942   2.73234
 Alpha virt. eigenvalues --    2.73814   2.74208   2.74929   2.76014   2.80580
 Alpha virt. eigenvalues --    2.81637   2.84154   2.85482   2.86497   2.87168
 Alpha virt. eigenvalues --    2.87650   2.87777   2.88539   2.89014   2.89300
 Alpha virt. eigenvalues --    2.89348   2.89816   2.90921   2.91379   2.92920
 Alpha virt. eigenvalues --    2.93091   2.93665   2.94424   2.94965   2.95737
 Alpha virt. eigenvalues --    2.95871   2.96258   2.96550   2.96998   2.97197
 Alpha virt. eigenvalues --    2.97656   2.98263   2.99016   2.99586   2.99920
 Alpha virt. eigenvalues --    3.02150   3.02379   3.03520   3.04098   3.05061
 Alpha virt. eigenvalues --    3.05843   3.06890   3.07140   3.07953   3.08824
 Alpha virt. eigenvalues --    3.08961   3.09752   3.09990   3.11254   3.12094
 Alpha virt. eigenvalues --    3.12652   3.14463   3.19150   3.20308   3.36516
 Alpha virt. eigenvalues --    3.62097   3.73603   3.79996   3.87349  45.26998
  Beta  occ. eigenvalues --  -77.08013 -77.07730 -19.17551 -19.06431 -19.06003
  Beta  occ. eigenvalues --  -14.33481 -10.26541 -10.23904 -10.23870 -10.20759
  Beta  occ. eigenvalues --  -10.20740 -10.20677 -10.20503 -10.20356 -10.19558
  Beta  occ. eigenvalues --  -10.19554 -10.19408 -10.19363 -10.17577 -10.17412
  Beta  occ. eigenvalues --  -10.17405 -10.17338 -10.17330 -10.17261 -10.17225
  Beta  occ. eigenvalues --  -10.17201 -10.17076 -10.17068 -10.16924 -10.16432
  Beta  occ. eigenvalues --   -6.57186  -6.56911  -4.73807  -4.73755  -4.73534
  Beta  occ. eigenvalues --   -4.73479  -4.73466  -4.73185  -2.99276  -1.85310
  Beta  occ. eigenvalues --   -1.81896  -1.80582  -1.07909  -0.95093  -0.88298
  Beta  occ. eigenvalues --   -0.85542  -0.82196  -0.81646  -0.79788  -0.79725
  Beta  occ. eigenvalues --   -0.79514  -0.79266  -0.73511  -0.69886  -0.67938
  Beta  occ. eigenvalues --   -0.67828  -0.67740  -0.67475  -0.66984  -0.66908
  Beta  occ. eigenvalues --   -0.66687  -0.66590  -0.63584  -0.62728  -0.59478
  Beta  occ. eigenvalues --   -0.59217  -0.54319  -0.54155  -0.53938  -0.51449
  Beta  occ. eigenvalues --   -0.51113  -0.50038  -0.49371  -0.46980  -0.46814
  Beta  occ. eigenvalues --   -0.45516  -0.45257  -0.44777  -0.44535  -0.44469
  Beta  occ. eigenvalues --   -0.44184  -0.43850  -0.43707  -0.43166  -0.42992
  Beta  occ. eigenvalues --   -0.42676  -0.42514  -0.42182  -0.42033  -0.41547
  Beta  occ. eigenvalues --   -0.41341  -0.41112  -0.40072  -0.39903  -0.39026
  Beta  occ. eigenvalues --   -0.38787  -0.38576  -0.37696  -0.37559  -0.37356
  Beta  occ. eigenvalues --   -0.37189  -0.37066  -0.37049  -0.36826  -0.36602
  Beta  occ. eigenvalues --   -0.36195  -0.35771  -0.35471  -0.35412  -0.34644
  Beta  occ. eigenvalues --   -0.34361  -0.33921  -0.33541  -0.32951  -0.32640
  Beta  occ. eigenvalues --   -0.32325  -0.32205  -0.32010  -0.31366  -0.30195
  Beta  occ. eigenvalues --   -0.29404  -0.29109  -0.28803  -0.27977  -0.27427
  Beta  occ. eigenvalues --   -0.27179  -0.25763  -0.25190  -0.24308  -0.23873
  Beta  occ. eigenvalues --   -0.22267  -0.20258
  Beta virt. eigenvalues --   -0.08694  -0.04837  -0.03650  -0.02305  -0.00151
  Beta virt. eigenvalues --    0.01290   0.01915   0.04536   0.05084   0.05859
  Beta virt. eigenvalues --    0.06273   0.06712   0.07429   0.07757   0.08064
  Beta virt. eigenvalues --    0.08317   0.08645   0.08767   0.09336   0.09761
  Beta virt. eigenvalues --    0.10137   0.10483   0.10680   0.11038   0.11407
  Beta virt. eigenvalues --    0.11910   0.12366   0.12415   0.12881   0.13490
  Beta virt. eigenvalues --    0.13666   0.13704   0.13984   0.14093   0.14157
  Beta virt. eigenvalues --    0.14938   0.14969   0.15304   0.15531   0.16178
  Beta virt. eigenvalues --    0.16354   0.16685   0.16955   0.17149   0.17567
  Beta virt. eigenvalues --    0.17754   0.17997   0.18092   0.18567   0.18813
  Beta virt. eigenvalues --    0.19322   0.19944   0.20241   0.20326   0.20779
  Beta virt. eigenvalues --    0.20906   0.21194   0.21276   0.21381   0.21711
  Beta virt. eigenvalues --    0.21867   0.22345   0.22805   0.23275   0.23706
  Beta virt. eigenvalues --    0.24412   0.24717   0.24938   0.25401   0.25865
  Beta virt. eigenvalues --    0.26204   0.26299   0.26940   0.27586   0.28192
  Beta virt. eigenvalues --    0.28987   0.30162   0.30954   0.31428   0.31711
  Beta virt. eigenvalues --    0.32894   0.34684   0.35896   0.36220   0.36815
  Beta virt. eigenvalues --    0.38150   0.39353   0.39659   0.39924   0.40710
  Beta virt. eigenvalues --    0.40797   0.41067   0.41445   0.41883   0.42678
  Beta virt. eigenvalues --    0.43177   0.43259   0.43759   0.44240   0.45005
  Beta virt. eigenvalues --    0.45692   0.45847   0.46512   0.46965   0.48420
  Beta virt. eigenvalues --    0.48918   0.49143   0.49513   0.50303   0.51971
  Beta virt. eigenvalues --    0.52604   0.52698   0.52932   0.53562   0.53581
  Beta virt. eigenvalues --    0.54207   0.54485   0.54656   0.55711   0.56186
  Beta virt. eigenvalues --    0.56740   0.57619   0.58322   0.58388   0.58619
  Beta virt. eigenvalues --    0.59182   0.59612   0.60015   0.60268   0.60645
  Beta virt. eigenvalues --    0.61322   0.61464   0.62189   0.62493   0.62630
  Beta virt. eigenvalues --    0.63102   0.63328   0.63576   0.63801   0.64593
  Beta virt. eigenvalues --    0.64702   0.64946   0.65352   0.65445   0.65826
  Beta virt. eigenvalues --    0.65972   0.66086   0.66302   0.66500   0.66811
  Beta virt. eigenvalues --    0.67240   0.67363   0.67591   0.67948   0.68258
  Beta virt. eigenvalues --    0.68517   0.68657   0.68895   0.68964   0.69263
  Beta virt. eigenvalues --    0.69426   0.69571   0.69935   0.70626   0.70649
  Beta virt. eigenvalues --    0.70908   0.71234   0.71419   0.71478   0.71534
  Beta virt. eigenvalues --    0.72325   0.72690   0.72747   0.73003   0.73348
  Beta virt. eigenvalues --    0.73497   0.73546   0.73712   0.74004   0.74563
  Beta virt. eigenvalues --    0.74960   0.75246   0.75408   0.75733   0.76138
  Beta virt. eigenvalues --    0.76401   0.76749   0.77071   0.77654   0.78188
  Beta virt. eigenvalues --    0.78357   0.78748   0.78778   0.79463   0.79732
  Beta virt. eigenvalues --    0.80563   0.80694   0.81117   0.81548   0.81764
  Beta virt. eigenvalues --    0.82280   0.82458   0.82885   0.83322   0.83744
  Beta virt. eigenvalues --    0.84450   0.85042   0.85679   0.86244   0.86885
  Beta virt. eigenvalues --    0.87516   0.88074   0.88749   0.89558   0.89716
  Beta virt. eigenvalues --    0.90250   0.91347   0.91911   0.92076   0.93494
  Beta virt. eigenvalues --    0.94813   0.95288   0.96181   0.96241   0.97816
  Beta virt. eigenvalues --    0.99535   1.00539   1.02044   1.02481   1.03036
  Beta virt. eigenvalues --    1.03422   1.03937   1.04855   1.05444   1.06460
  Beta virt. eigenvalues --    1.06746   1.07667   1.08292   1.08655   1.09736
  Beta virt. eigenvalues --    1.10718   1.11731   1.12446   1.12947   1.13452
  Beta virt. eigenvalues --    1.15064   1.16096   1.16495   1.16917   1.17244
  Beta virt. eigenvalues --    1.18794   1.19174   1.19429   1.20460   1.20889
  Beta virt. eigenvalues --    1.21189   1.22314   1.22993   1.23325   1.24250
  Beta virt. eigenvalues --    1.24782   1.24845   1.25586   1.26046   1.27377
  Beta virt. eigenvalues --    1.28188   1.28953   1.29486   1.29809   1.30514
  Beta virt. eigenvalues --    1.30706   1.31452   1.32231   1.33294   1.34698
  Beta virt. eigenvalues --    1.36356   1.37530   1.37864   1.39463   1.42101
  Beta virt. eigenvalues --    1.43895   1.44675   1.46798   1.48318   1.49449
  Beta virt. eigenvalues --    1.49686   1.50159   1.51696   1.51961   1.52905
  Beta virt. eigenvalues --    1.53344   1.53639   1.54128   1.54321   1.54775
  Beta virt. eigenvalues --    1.55186   1.55726   1.56259   1.56575   1.56773
  Beta virt. eigenvalues --    1.57327   1.57926   1.58419   1.58637   1.58787
  Beta virt. eigenvalues --    1.59150   1.59475   1.59671   1.60283   1.61115
  Beta virt. eigenvalues --    1.61677   1.62119   1.62847   1.63296   1.63778
  Beta virt. eigenvalues --    1.64349   1.64843   1.65536   1.65879   1.66483
  Beta virt. eigenvalues --    1.66572   1.67698   1.68047   1.68910   1.69950
  Beta virt. eigenvalues --    1.70221   1.70971   1.72228   1.72831   1.73939
  Beta virt. eigenvalues --    1.74621   1.75419   1.76443   1.76935   1.77106
  Beta virt. eigenvalues --    1.77441   1.77588   1.78522   1.78949   1.79104
  Beta virt. eigenvalues --    1.79225   1.79452   1.79687   1.80299   1.80563
  Beta virt. eigenvalues --    1.81263   1.81487   1.81692   1.82506   1.82768
  Beta virt. eigenvalues --    1.83296   1.83802   1.84268   1.84598   1.84624
  Beta virt. eigenvalues --    1.84828   1.85463   1.85819   1.86042   1.86257
  Beta virt. eigenvalues --    1.86548   1.87116   1.87497   1.88096   1.88748
  Beta virt. eigenvalues --    1.89527   1.90573   1.90870   1.91444   1.92115
  Beta virt. eigenvalues --    1.92304   1.92645   1.93051   1.93169   1.93645
  Beta virt. eigenvalues --    1.93917   1.94051   1.94280   1.94371   1.94957
  Beta virt. eigenvalues --    1.95117   1.95277   1.95881   1.96051   1.96634
  Beta virt. eigenvalues --    1.97017   1.97247   1.98083   1.98471   1.99092
  Beta virt. eigenvalues --    1.99210   1.99922   2.00255   2.00739   2.01057
  Beta virt. eigenvalues --    2.01424   2.01885   2.02534   2.02622   2.03934
  Beta virt. eigenvalues --    2.04069   2.04496   2.05669   2.07649   2.08614
  Beta virt. eigenvalues --    2.09712   2.10209   2.11662   2.12640   2.15247
  Beta virt. eigenvalues --    2.15876   2.16201   2.16721   2.16978   2.17679
  Beta virt. eigenvalues --    2.17984   2.18401   2.18635   2.19035   2.19246
  Beta virt. eigenvalues --    2.19802   2.20146   2.20635   2.20958   2.21594
  Beta virt. eigenvalues --    2.22354   2.22779   2.22867   2.23346   2.24227
  Beta virt. eigenvalues --    2.24379   2.25030   2.25328   2.27388   2.28310
  Beta virt. eigenvalues --    2.29246   2.29956   2.31833   2.35195   2.38127
  Beta virt. eigenvalues --    2.38579   2.38965   2.39327   2.40096   2.40678
  Beta virt. eigenvalues --    2.40974   2.41374   2.42178   2.42261   2.42669
  Beta virt. eigenvalues --    2.43002   2.43326   2.44469   2.45038   2.45956
  Beta virt. eigenvalues --    2.47131   2.47239   2.47733   2.48998   2.50336
  Beta virt. eigenvalues --    2.51382   2.52287   2.55311   2.55591   2.56016
  Beta virt. eigenvalues --    2.56318   2.56465   2.56545   2.56740   2.57560
  Beta virt. eigenvalues --    2.58389   2.61378   2.62128   2.62453   2.62825
  Beta virt. eigenvalues --    2.63019   2.63527   2.63756   2.63913   2.64091
  Beta virt. eigenvalues --    2.64325   2.64701   2.64963   2.65345   2.65894
  Beta virt. eigenvalues --    2.66179   2.67577   2.69338   2.72574   2.72840
  Beta virt. eigenvalues --    2.72976   2.73378   2.74003   2.74307   2.75669
  Beta virt. eigenvalues --    2.76428   2.80728   2.81795   2.84227   2.86029
  Beta virt. eigenvalues --    2.86759   2.87210   2.87790   2.87801   2.88590
  Beta virt. eigenvalues --    2.89047   2.89347   2.89389   2.89831   2.90934
  Beta virt. eigenvalues --    2.91392   2.92936   2.93101   2.93727   2.94441
  Beta virt. eigenvalues --    2.95016   2.95784   2.95899   2.96348   2.96619
  Beta virt. eigenvalues --    2.97008   2.97303   2.97772   2.98306   2.99032
  Beta virt. eigenvalues --    2.99646   3.00009   3.02162   3.02391   3.04152
  Beta virt. eigenvalues --    3.04290   3.05157   3.05954   3.06949   3.07458
  Beta virt. eigenvalues --    3.08096   3.08979   3.08989   3.09769   3.09997
  Beta virt. eigenvalues --    3.11260   3.12104   3.12673   3.14597   3.18918
  Beta virt. eigenvalues --    3.20114   3.36843   3.62220   3.73524   3.80495
  Beta virt. eigenvalues --    3.87385  45.14195
          Condensed to atoms (all electrons):
          Atomic-Atomic Spin Densities.
 Mulliken charges and spin densities:
               1          2
     1  P    0.271321   0.092125
     2  N   -0.118265   0.070472
     3  C    0.019403   0.004700
     4  H    0.061300   0.000400
     5  H    0.091502  -0.000172
     6  O   -0.541495  -0.002802
     7  P    0.273319   0.096713
     8  C   -0.046715  -0.006117
     9  C   -0.002143   0.005677
    10  H    0.009640   0.001240
    11  C    0.066137  -0.005417
    12  H    0.022884   0.000130
    13  C   -0.005366   0.005677
    14  H    0.009183   0.001272
    15  C   -0.038133  -0.006167
    16  C    0.013982   0.005786
    17  H    0.063340   0.000527
    18  H    0.091016  -0.000228
    19  Ru  -0.022299   1.660476
    20  H    0.170967   0.000910
    21  C   -0.380302   0.003773
    22  C   -0.389868   0.007983
    23  C   -0.387802   0.010336
    24  C   -0.392618   0.002500
    25  C    0.073142  -0.000563
    26  H    0.024416   0.000054
    27  H    0.040606   0.001800
    28  H    0.016885  -0.000137
    29  C    0.082668   0.000064
    30  H    0.013484  -0.000085
    31  H    0.031261   0.002054
    32  H    0.011112   0.000005
    33  C    0.077754   0.000751
    34  H    0.012281   0.001568
    35  H    0.036554  -0.000013
    36  H    0.025985   0.000024
    37  C    0.080679   0.001627
    38  H    0.012029  -0.000056
    39  H    0.015369   0.002459
    40  H    0.024783  -0.000085
    41  C    0.072737  -0.000103
    42  H    0.015055   0.000140
    43  H    0.036021   0.000014
    44  H    0.037047   0.000975
    45  C    0.058206   0.000916
    46  H    0.024278  -0.001428
    47  H    0.035360   0.000129
    48  H    0.018899  -0.000134
    49  C    0.073904   0.000220
    50  H    0.005901  -0.000142
    51  H    0.014839   0.000458
    52  H    0.004396   0.000034
    53  C    0.079024   0.001298
    54  H    0.009839   0.001689
    55  H    0.033287  -0.000034
    56  H    0.025910  -0.000053
    57  C    0.071185  -0.000614
    58  H    0.022703   0.000031
    59  H    0.027534   0.000613
    60  H    0.011358  -0.000036
    61  C    0.077443   0.000016
    62  H    0.041895   0.001253
    63  H    0.021681   0.000087
    64  H    0.012994  -0.000289
    65  C    0.080710   0.001390
    66  H    0.010030   0.000002
    67  H    0.013480   0.002230
    68  H    0.022600  -0.000077
    69  C    0.069546  -0.000230
    70  H    0.012994   0.000029
    71  H    0.036964   0.000034
    72  H    0.038220   0.001188
    73  O   -0.595098   0.169522
    74  C    0.047255  -0.098477
    75  H    0.168089   0.000297
    76  O   -0.154284  -0.040212
 Sum of Mulliken charges =  -0.00000   2.00000
 Mulliken charges and spin densities with hydrogens summed into heavy atoms:
               1          2
     1  P    0.271321   0.092125
     2  N   -0.118265   0.070472
     3  C    0.172204   0.004928
     6  O   -0.370528  -0.001892
     7  P    0.273319   0.096713
     8  C   -0.046715  -0.006117
     9  C    0.007497   0.006917
    11  C    0.089022  -0.005287
    13  C    0.003817   0.006949
    15  C   -0.038133  -0.006167
    16  C    0.168338   0.006085
    19  Ru  -0.022299   1.660476
    21  C   -0.380302   0.003773
    22  C   -0.389868   0.007983
    23  C   -0.387802   0.010336
    24  C   -0.392618   0.002500
    25  C    0.155049   0.001154
    29  C    0.138525   0.002039
    33  C    0.152575   0.002330
    37  C    0.132860   0.003945
    41  C    0.160860   0.001026
    45  C    0.136744  -0.000517
    49  C    0.099039   0.000571
    53  C    0.148060   0.002900
    57  C    0.132779  -0.000007
    61  C    0.154013   0.001066
    65  C    0.126820   0.003545
    69  C    0.157724   0.001022
    73  O   -0.427009   0.169819
    74  C    0.047255  -0.098477
    76  O   -0.154284  -0.040212
 Electronic spatial extent (au):  <R**2>=          13822.5591
 Charge=             -0.0000 electrons
 Dipole moment (field-independent basis, Debye):
    X=              2.1786    Y=             15.1649    Z=              0.1531  Tot=             15.3214
 Quadrupole moment (field-independent basis, Debye-Ang):
   XX=           -171.5047   YY=           -232.4163   ZZ=           -231.4836
   XY=             -2.0934   XZ=            -11.9528   YZ=              4.1472
 Traceless Quadrupole moment (field-independent basis, Debye-Ang):
   XX=             40.2968   YY=            -20.6148   ZZ=            -19.6820
   XY=             -2.0934   XZ=            -11.9528   YZ=              4.1472
 Octapole moment (field-independent basis, Debye-Ang**2):
  XXX=             15.2872  YYY=            156.4369  ZZZ=            -17.5731  XYY=              4.8540
  XXY=            -13.2993  XXZ=             -2.0517  XZZ=             14.6842  YZZ=             -7.8194
  YYZ=            -11.0743  XYZ=              5.5375
 Hexadecapole moment (field-independent basis, Debye-Ang**3):
 XXXX=         -10441.4079 YYYY=          -4442.2505 ZZZZ=          -3423.8423 XXXY=            -10.8166
 XXXZ=            -63.0255 YYYX=              4.2938 YYYZ=             53.7803 ZZZX=            -45.8232
 ZZZY=             42.5569 XXYY=          -2487.4930 XXZZ=          -2287.1595 YYZZ=          -1311.4567
 XXYZ=              4.5634 YYXZ=            -78.6506 ZZXY=            -17.8298
 N-N= 4.447580652391D+03 E-N=-1.354921897022D+04  KE= 1.921343494816D+03
                          Isotropic Fermi Contact Couplings
        Atom                 a.u.       MegaHertz       Gauss      10(-4) cm-1
     1  P(31)              0.11737     106.28233      37.92418      35.45197
     2  N(14)              0.17933      28.97088      10.33753       9.66365
     3  C(13)             -0.00440      -2.47261      -0.88229      -0.82478
     4  H(1)               0.00025       0.54875       0.19581       0.18304
     5  H(1)              -0.00008      -0.17632      -0.06292      -0.05881
     6  O(17)              0.00427      -1.29340      -0.46152      -0.43143
     7  P(31)              0.11381     103.05736      36.77343      34.37623
     8  C(13)             -0.00567      -3.18718      -1.13726      -1.06313
     9  C(13)              0.00672       3.77518       1.34708       1.25927
    10  H(1)               0.00021       0.46825       0.16709       0.15619
    11  C(13)             -0.00113      -0.63345      -0.22603      -0.21130
    12  H(1)               0.00005       0.10168       0.03628       0.03392
    13  C(13)              0.00671       3.77078       1.34551       1.25780
    14  H(1)               0.00022       0.48996       0.17483       0.16343
    15  C(13)             -0.00576      -3.23933      -1.15587      -1.08053
    16  C(13)             -0.00389      -2.18815      -0.78079      -0.72989
    17  H(1)               0.00027       0.60052       0.21428       0.20031
    18  H(1)              -0.00016      -0.35616      -0.12709      -0.11880
    19  Ru(99)            -0.00001       0.00137       0.00049       0.00046
    20  H(1)               0.00069       1.53817       0.54886       0.51308
    21  C(13)              0.00467       2.62671       0.93728       0.87618
    22  C(13)              0.00861       4.83755       1.72616       1.61363
    23  C(13)              0.01103       6.20173       2.21293       2.06867
    24  C(13)              0.00383       2.15041       0.76732       0.71730
    25  C(13)             -0.00047      -0.26185      -0.09343      -0.08734
    26  H(1)              -0.00000      -0.00133      -0.00047      -0.00044
    27  H(1)               0.00002       0.03980       0.01420       0.01328
    28  H(1)              -0.00004      -0.09113      -0.03252      -0.03040
    29  C(13)              0.00119       0.66914       0.23877       0.22320
    30  H(1)              -0.00002      -0.03947      -0.01408      -0.01316
    31  H(1)              -0.00002      -0.04781      -0.01706      -0.01595
    32  H(1)              -0.00000      -0.01108      -0.00395      -0.00370
    33  C(13)              0.00253       1.42110       0.50708       0.47403
    34  H(1)               0.00051       1.13682       0.40565       0.37920
    35  H(1)               0.00001       0.03104       0.01108       0.01036
    36  H(1)               0.00004       0.09947       0.03549       0.03318
    37  C(13)              0.00382       2.14863       0.76669       0.71671
    38  H(1)               0.00002       0.04092       0.01460       0.01365
    39  H(1)               0.00082       1.84250       0.65745       0.61459
    40  H(1)               0.00001       0.01907       0.00681       0.00636
    41  C(13)             -0.00040      -0.22357      -0.07978      -0.07458
    42  H(1)               0.00004       0.07998       0.02854       0.02668
    43  H(1)              -0.00000      -0.00132      -0.00047      -0.00044
    44  H(1)              -0.00002      -0.04367      -0.01558      -0.01457
    45  C(13)             -0.00040      -0.22658      -0.08085      -0.07558
    46  H(1)               0.00002       0.04057       0.01448       0.01353
    47  H(1)               0.00003       0.06000       0.02141       0.02001
    48  H(1)              -0.00004      -0.08351      -0.02980      -0.02786
    49  C(13)              0.00016       0.08972       0.03201       0.02993
    50  H(1)              -0.00003      -0.07654      -0.02731      -0.02553
    51  H(1)               0.00000       0.00306       0.00109       0.00102
    52  H(1)               0.00001       0.01322       0.00472       0.00441
    53  C(13)              0.00364       2.04759       0.73063       0.68300
    54  H(1)               0.00051       1.15091       0.41067       0.38390
    55  H(1)               0.00000       0.00393       0.00140       0.00131
    56  H(1)               0.00001       0.02814       0.01004       0.00939
    57  C(13)             -0.00067      -0.37469      -0.13370      -0.12498
    58  H(1)              -0.00001      -0.02868      -0.01023      -0.00957
    59  H(1)               0.00005       0.10428       0.03721       0.03478
    60  H(1)              -0.00000      -0.00742      -0.00265      -0.00248
    61  C(13)              0.00066       0.37312       0.13314       0.12446
    62  H(1)              -0.00002      -0.05228      -0.01865      -0.01744
    63  H(1)              -0.00000      -0.00101      -0.00036      -0.00034
    64  H(1)              -0.00010      -0.21952      -0.07833      -0.07322
    65  C(13)              0.00343       1.92941       0.68846       0.64358
    66  H(1)               0.00004       0.08031       0.02866       0.02679
    67  H(1)               0.00077       1.73086       0.61761       0.57735
    68  H(1)               0.00001       0.01692       0.00604       0.00565
    69  C(13)             -0.00033      -0.18734      -0.06685      -0.06249
    70  H(1)               0.00001       0.02280       0.00813       0.00760
    71  H(1)               0.00001       0.01771       0.00632       0.00591
    72  H(1)              -0.00003      -0.05964      -0.02128      -0.01989
    73  O(17)              0.14782     -44.80393     -15.98716     -14.94498
    74  C(13)             -0.05489     -30.85398     -11.00947     -10.29178
    75  H(1)              -0.00228      -5.10498      -1.82158      -1.70284
    76  O(17)             -0.01684       5.10476       1.82150       1.70276
 --------------------------------------------------------
       Center         ----  Spin Dipole Couplings  ----
                      3XX-RR        3YY-RR        3ZZ-RR
 --------------------------------------------------------
     1   Atom        0.086055      0.002334     -0.088389
     2   Atom       -0.112168      0.207597     -0.095430
     3   Atom        0.001312      0.009270     -0.010582
     4   Atom        0.001750      0.001648     -0.003399
     5   Atom       -0.000691      0.000134      0.000556
     6   Atom        0.019764      0.005187     -0.024951
     7   Atom        0.087434      0.007628     -0.095062
     8   Atom        0.003954      0.010805     -0.014759
     9   Atom       -0.004578      0.007450     -0.002872
    10   Atom       -0.000825      0.002633     -0.001807
    11   Atom       -0.001039      0.006792     -0.005753
    12   Atom       -0.000860      0.002045     -0.001185
    13   Atom       -0.004668      0.007427     -0.002759
    14   Atom       -0.000904      0.002589     -0.001685
    15   Atom        0.001012      0.010701     -0.011712
    16   Atom        0.000469      0.009747     -0.010217
    17   Atom        0.001651      0.001706     -0.003357
    18   Atom       -0.000965     -0.000258      0.001223
    19   Atom        0.225980      0.357308     -0.583288
    20   Atom       -0.011659     -0.011298      0.022957
    21   Atom        0.004166     -0.004693      0.000527
    22   Atom        0.011621     -0.008406     -0.003215
    23   Atom        0.014700     -0.009489     -0.005211
    24   Atom        0.003373     -0.004356      0.000983
    25   Atom       -0.000400     -0.000227      0.000628
    26   Atom       -0.000391      0.001927     -0.001536
    27   Atom       -0.003672     -0.001078      0.004750
    28   Atom       -0.000481     -0.000632      0.001113
    29   Atom        0.002471     -0.003851      0.001380
    30   Atom        0.000239     -0.001951      0.001713
    31   Atom        0.000153     -0.004715      0.004561
    32   Atom        0.002795     -0.002291     -0.000504
    33   Atom        0.004431     -0.001511     -0.002919
    34   Atom        0.001173     -0.000816     -0.000357
    35   Atom        0.003128     -0.001564     -0.001564
    36   Atom        0.001772      0.000025     -0.001797
    37   Atom        0.005060     -0.003405     -0.001655
    38   Atom        0.003267     -0.001412     -0.001854
    39   Atom        0.002117     -0.001229     -0.000888
    40   Atom        0.001684     -0.001341     -0.000344
    41   Atom        0.005558     -0.001803     -0.003754
    42   Atom        0.003008     -0.000967     -0.002040
    43   Atom        0.004200     -0.001945     -0.002256
    44   Atom        0.006445     -0.001269     -0.005176
    45   Atom        0.002706     -0.004771      0.002065
    46   Atom        0.002313     -0.003475      0.001162
    47   Atom        0.000313     -0.004807      0.004494
    48   Atom        0.001393     -0.001961      0.000568
    49   Atom        0.002619     -0.004050      0.001431
    50   Atom        0.000875     -0.002157      0.001282
    51   Atom        0.000993     -0.006201      0.005208
    52   Atom        0.003618     -0.002716     -0.000902
    53   Atom        0.005668     -0.002049     -0.003618
    54   Atom        0.001367     -0.000932     -0.000435
    55   Atom        0.003390     -0.001682     -0.001708
    56   Atom        0.001945     -0.000092     -0.001853
    57   Atom       -0.000142      0.000096      0.000046
    58   Atom       -0.000268      0.002159     -0.001891
    59   Atom       -0.003829      0.000353      0.003477
    60   Atom       -0.000329     -0.000454      0.000783
    61   Atom        0.001222     -0.004146      0.002924
    62   Atom        0.000317     -0.003572      0.003256
    63   Atom       -0.001244     -0.003919      0.005163
    64   Atom        0.000826     -0.001827      0.001001
    65   Atom        0.004674     -0.003248     -0.001427
    66   Atom        0.003187     -0.001449     -0.001738
    67   Atom        0.001884     -0.001176     -0.000708
    68   Atom        0.001444     -0.001257     -0.000187
    69   Atom        0.005586     -0.001857     -0.003730
    70   Atom        0.002836     -0.000970     -0.001866
    71   Atom        0.004356     -0.001957     -0.002399
    72   Atom        0.006642     -0.001206     -0.005436
    73   Atom        0.120902      0.255857     -0.376758
    74   Atom       -0.038315     -0.054657      0.092971
    75   Atom       -0.030314      0.001194      0.029120
    76   Atom       -0.033017     -0.069618      0.102636
 --------------------------------------------------------
                        XY            XZ            YZ
 --------------------------------------------------------
     1   Atom        0.140055     -0.043812     -0.038300
     2   Atom        0.007120      0.010395      0.012686
     3   Atom        0.002036     -0.003001     -0.003338
     4   Atom        0.004095     -0.001569     -0.001883
     5   Atom        0.004803     -0.005283     -0.006256
     6   Atom        0.018905     -0.007935     -0.015646
     7   Atom       -0.147443     -0.043631      0.035967
     8   Atom        0.010573     -0.008186     -0.003537
     9   Atom        0.001546      0.001378     -0.000613
    10   Atom        0.001971     -0.000467     -0.000869
    11   Atom        0.000193     -0.002974      0.000419
    12   Atom        0.000060     -0.000158      0.000139
    13   Atom       -0.001574      0.001255      0.000516
    14   Atom       -0.001835     -0.000557      0.001143
    15   Atom       -0.009330     -0.010912      0.006418
    16   Atom       -0.001416     -0.003414      0.003888
    17   Atom       -0.004027     -0.001687      0.002042
    18   Atom       -0.003908     -0.005067      0.006207
    19   Atom        0.001001     -0.011227      0.055778
    20   Atom       -0.001774     -0.010563      0.005270
    21   Atom       -0.007214      0.010289     -0.006255
    22   Atom        0.006301     -0.014494     -0.005309
    23   Atom       -0.008201     -0.015455      0.006128
    24   Atom        0.005975      0.009402      0.005516
    25   Atom        0.003264      0.004026      0.004328
    26   Atom        0.003261      0.002303      0.003243
    27   Atom        0.002705      0.005278      0.008159
    28   Atom        0.001383      0.002247      0.002339
    29   Atom        0.000466      0.006049      0.000251
    30   Atom        0.000377      0.003072      0.000408
    31   Atom       -0.000628      0.008476     -0.001741
    32   Atom       -0.000596      0.003532     -0.000490
    33   Atom        0.003729      0.002054      0.000960
    34   Atom        0.001357      0.001490      0.000849
    35   Atom        0.001085      0.001116      0.000429
    36   Atom        0.002645      0.000765      0.000419
    37   Atom        0.003254     -0.005200     -0.001952
    38   Atom        0.001702     -0.000950     -0.000028
    39   Atom        0.000011     -0.001978      0.000111
    40   Atom        0.001459     -0.002688     -0.001423
    41   Atom       -0.002507     -0.000689     -0.000136
    42   Atom       -0.001973     -0.001091      0.000353
    43   Atom       -0.001228      0.000860     -0.000263
    44   Atom       -0.005238      0.000997     -0.000573
    45   Atom       -0.001960     -0.006916      0.001844
    46   Atom       -0.005364     -0.009928      0.006215
    47   Atom        0.000296     -0.006624     -0.000124
    48   Atom       -0.001150     -0.003479      0.001359
    49   Atom       -0.000357      0.006059     -0.000030
    50   Atom       -0.000497      0.003272     -0.000358
    51   Atom        0.000610      0.009217      0.001222
    52   Atom        0.000973      0.004019      0.000801
    53   Atom       -0.004236      0.001989     -0.000850
    54   Atom       -0.001459      0.001502     -0.000840
    55   Atom       -0.000943      0.000999     -0.000376
    56   Atom       -0.002727      0.000613     -0.000243
    57   Atom       -0.003777      0.004002     -0.004297
    58   Atom       -0.003525      0.002131     -0.002992
    59   Atom       -0.003908      0.005339     -0.008142
    60   Atom       -0.001764      0.002303     -0.002412
    61   Atom        0.001587     -0.007069     -0.001801
    62   Atom        0.003857     -0.009572     -0.006062
    63   Atom       -0.000181     -0.005784      0.000222
    64   Atom        0.000876     -0.003329     -0.001244
    65   Atom       -0.002868     -0.005010      0.001729
    66   Atom       -0.001577     -0.001092      0.000086
    67   Atom       -0.000008     -0.002003     -0.000096
    68   Atom       -0.001335     -0.002703      0.001387
    69   Atom        0.002434     -0.001313     -0.000145
    70   Atom        0.001889     -0.001404     -0.000461
    71   Atom        0.001312      0.000517      0.000226
    72   Atom        0.005516     -0.000064      0.000159
    73   Atom        0.012430     -0.031242      0.058549
    74   Atom       -0.002970      0.005571     -0.006077
    75   Atom        0.000614      0.003644      0.019028
    76   Atom       -0.001515      0.007755     -0.009467
 --------------------------------------------------------


 ---------------------------------------------------------------------------------
              Anisotropic Spin Dipole Couplings in Principal Axis System
 ---------------------------------------------------------------------------------

       Atom             a.u.   MegaHertz   Gauss  10(-4) cm-1        Axes

              Baa    -0.1056   -22.818    -8.142    -7.611 -0.3700  0.6980  0.6131
     1 P(31)  Bbb    -0.0964   -20.843    -7.437    -6.953  0.4974 -0.4086  0.7653
              Bcc     0.2020    43.662    15.580    14.564  0.7847  0.5881 -0.1960
 
              Baa    -0.1171    -4.518    -1.612    -1.507  0.9027 -0.0030 -0.4303
     2 N(14)  Bbb    -0.0912    -3.516    -1.255    -1.173  0.4297 -0.0485  0.9017
              Bcc     0.2083     8.034     2.867     2.680  0.0236  0.9988  0.0425
 
              Baa    -0.0117    -1.567    -0.559    -0.523  0.2030  0.1349  0.9698
     3 C(13)  Bbb     0.0012     0.155     0.055     0.052  0.9412 -0.3001 -0.1553
              Bcc     0.0105     1.411     0.504     0.471  0.2701  0.9443 -0.1878
 
              Baa    -0.0040    -2.155    -0.769    -0.719  0.0720  0.2665  0.9611
     4 H(1)   Bbb    -0.0024    -1.261    -0.450    -0.421  0.7242 -0.6765  0.1334
              Bcc     0.0064     3.416     1.219     1.139  0.6858  0.6865 -0.2417
 
              Baa    -0.0060    -3.177    -1.133    -1.060  0.1774  0.6337  0.7529
     5 H(1)   Bbb    -0.0050    -2.678    -0.956    -0.893  0.8343 -0.5027  0.2265
              Bcc     0.0110     5.855     2.089     1.953 -0.5220 -0.5880  0.6179
 
              Baa    -0.0316     2.287     0.816     0.763 -0.0023  0.3923  0.9198
     6 O(17)  Bbb    -0.0051     0.368     0.131     0.123 -0.6365  0.7089 -0.3040
              Bcc     0.0367    -2.654    -0.947    -0.885  0.7713  0.5862 -0.2481
 
              Baa    -0.1074   -23.213    -8.283    -7.743 -0.3091 -0.6215  0.7199
     7 P(31)  Bbb    -0.1033   -22.342    -7.972    -7.452  0.5438  0.5055  0.6699
              Bcc     0.2107    45.554    16.255    15.195  0.7802 -0.5986 -0.1817
 
              Baa    -0.0178    -2.394    -0.854    -0.799  0.3588 -0.0172  0.9332
     8 C(13)  Bbb    -0.0024    -0.319    -0.114    -0.106  0.7092 -0.6451 -0.2846
              Bcc     0.0202     2.713     0.968     0.905  0.6069  0.7639 -0.2193
 
              Baa    -0.0056    -0.745    -0.266    -0.249  0.8704 -0.1259 -0.4759
     9 C(13)  Bbb    -0.0021    -0.283    -0.101    -0.094  0.4773 -0.0209  0.8785
              Bcc     0.0077     1.028     0.367     0.343  0.1205  0.9918 -0.0419
 
              Baa    -0.0020    -1.067    -0.381    -0.356  0.2797  0.0607  0.9582
    10 H(1)   Bbb    -0.0017    -0.908    -0.324    -0.303  0.8690 -0.4403 -0.2258
              Bcc     0.0037     1.975     0.705     0.659  0.4082  0.8958 -0.1759
 
              Baa    -0.0072    -0.967    -0.345    -0.323  0.4349 -0.0329  0.8999
    11 C(13)  Bbb     0.0004     0.053     0.019     0.018  0.9004  0.0012 -0.4351
              Bcc     0.0068     0.914     0.326     0.305  0.0132  0.9995  0.0302
 
              Baa    -0.0013    -0.670    -0.239    -0.224  0.3756 -0.0457  0.9257
    12 H(1)   Bbb    -0.0008    -0.425    -0.152    -0.142  0.9266 -0.0011 -0.3760
              Bcc     0.0021     1.095     0.391     0.365  0.0182  0.9990  0.0419
 
              Baa    -0.0055    -0.738    -0.263    -0.246  0.8927  0.1260 -0.4328
    13 C(13)  Bbb    -0.0021    -0.287    -0.103    -0.096  0.4335  0.0227  0.9009
              Bcc     0.0076     1.025     0.366     0.342 -0.1233  0.9918  0.0343
 
              Baa    -0.0020    -1.066    -0.380    -0.355  0.2654 -0.1318  0.9551
    14 H(1)   Bbb    -0.0017    -0.896    -0.320    -0.299  0.8836  0.4297 -0.1863
              Bcc     0.0037     1.962     0.700     0.654 -0.3858  0.8933  0.2305
 
              Baa    -0.0180    -2.418    -0.863    -0.806  0.4827 -0.0387  0.8749
    15 C(13)  Bbb    -0.0024    -0.322    -0.115    -0.108  0.6767  0.6506 -0.3446
              Bcc     0.0204     2.740     0.978     0.914 -0.5559  0.7584  0.3403
 
              Baa    -0.0117    -1.576    -0.562    -0.526  0.2490 -0.1565  0.9558
    16 C(13)  Bbb     0.0009     0.115     0.041     0.038  0.9479  0.2417 -0.2074
              Bcc     0.0109     1.461     0.521     0.487 -0.1985  0.9577  0.2085
 
              Baa    -0.0041    -2.187    -0.780    -0.730  0.0877 -0.2759  0.9572
    17 H(1)   Bbb    -0.0023    -1.237    -0.441    -0.413  0.7324  0.6692  0.1258
              Bcc     0.0064     3.424     1.222     1.142 -0.6752  0.6900  0.2607
 
              Baa    -0.0059    -3.139    -1.120    -1.047  0.2509 -0.6334  0.7320
    18 H(1)   Bbb    -0.0045    -2.378    -0.849    -0.793  0.8337  0.5257  0.1692
              Bcc     0.0103     5.518     1.969     1.840 -0.4920  0.5678  0.6599
 
              Baa    -0.5867    14.377     5.130     4.796  0.0139 -0.0590  0.9982
    19 Ru(99) Bbb     0.2261    -5.541    -1.977    -1.848  0.9999 -0.0017 -0.0140
              Bcc     0.3606    -8.836    -3.153    -2.947  0.0025  0.9983  0.0590
 
              Baa    -0.0147    -7.821    -2.791    -2.609  0.9610  0.1079  0.2547
    20 H(1)   Bbb    -0.0121    -6.444    -2.300    -2.150 -0.0659  0.9836 -0.1678
              Bcc     0.0267    14.265     5.090     4.758 -0.2687  0.1445  0.9523
 
              Baa    -0.0089    -1.197    -0.427    -0.399  0.1926  0.9017  0.3872
    21 C(13)  Bbb    -0.0081    -1.084    -0.387    -0.362 -0.6880 -0.1572  0.7085
              Bcc     0.0170     2.281     0.814     0.761  0.6997 -0.4028  0.5901
 
              Baa    -0.0127    -1.709    -0.610    -0.570  0.3601  0.4663  0.8080
    22 C(13)  Bbb    -0.0099    -1.327    -0.473    -0.443 -0.4443  0.8473 -0.2910
              Bcc     0.0226     3.036     1.083     1.013  0.8203  0.2542 -0.5123
 
              Baa    -0.0145    -1.952    -0.696    -0.651  0.2785 -0.5238  0.8050
    23 C(13)  Bbb    -0.0115    -1.540    -0.550    -0.514  0.4670  0.8063  0.3631
              Bcc     0.0260     3.492     1.246     1.165  0.8393 -0.2748 -0.4692
 
              Baa    -0.0078    -1.049    -0.374    -0.350 -0.0633  0.8747 -0.4805
    24 C(13)  Bbb    -0.0072    -0.972    -0.347    -0.324  0.7211 -0.2928 -0.6280
              Bcc     0.0151     2.021     0.721     0.674  0.6900  0.3863  0.6122
 
              Baa    -0.0042    -0.570    -0.203    -0.190 -0.3269 -0.5566  0.7638
    25 C(13)  Bbb    -0.0036    -0.478    -0.171    -0.159  0.7802 -0.6151 -0.1143
              Bcc     0.0078     1.048     0.374     0.350  0.5334  0.5585  0.6353
 
              Baa    -0.0036    -1.903    -0.679    -0.635 -0.2716 -0.3646  0.8907
    26 H(1)   Bbb    -0.0027    -1.437    -0.513    -0.479  0.8136 -0.5814  0.0101
              Bcc     0.0063     3.339     1.191     1.114  0.5141  0.7274  0.4545
 
              Baa    -0.0072    -3.868    -1.380    -1.290  0.4479  0.6354 -0.6291
    27 H(1)   Bbb    -0.0054    -2.866    -1.023    -0.956  0.8270 -0.5617  0.0215
              Bcc     0.0126     6.734     2.403     2.246  0.3397  0.5299  0.7771
 
              Baa    -0.0023    -1.229    -0.439    -0.410  0.3063  0.6795 -0.6667
    28 H(1)   Bbb    -0.0019    -1.021    -0.364    -0.340  0.8164 -0.5477 -0.1830
              Bcc     0.0042     2.250     0.803     0.750  0.4895  0.4882  0.7225
 
              Baa    -0.0042    -0.564    -0.201    -0.188 -0.6388  0.3674  0.6760
    29 C(13)  Bbb    -0.0038    -0.513    -0.183    -0.171  0.2182  0.9291 -0.2987
              Bcc     0.0080     1.076     0.384     0.359  0.7378  0.0432  0.6736
 
              Baa    -0.0022    -1.170    -0.417    -0.390  0.7781 -0.2176 -0.5893
    30 H(1)   Bbb    -0.0020    -1.063    -0.379    -0.354  0.1171  0.9719 -0.2042
              Bcc     0.0042     2.233     0.797     0.745  0.6171  0.0899  0.7817
 
              Baa    -0.0066    -3.516    -1.255    -1.173  0.7306 -0.3168 -0.6048
    31 H(1)   Bbb    -0.0047    -2.518    -0.898    -0.840  0.3160  0.9421 -0.1119
              Bcc     0.0113     6.034     2.153     2.013  0.6052 -0.1094  0.7885
 
              Baa    -0.0028    -1.480    -0.528    -0.494 -0.5052  0.2218  0.8340
    32 H(1)   Bbb    -0.0023    -1.253    -0.447    -0.418  0.2044  0.9697 -0.1340
              Bcc     0.0051     2.733     0.975     0.912  0.8384 -0.1028  0.5352
 
              Baa    -0.0035    -0.464    -0.165    -0.155 -0.2787  0.0614  0.9584
    33 C(13)  Bbb    -0.0033    -0.443    -0.158    -0.148 -0.3905  0.9045 -0.1715
              Bcc     0.0068     0.907     0.324     0.303  0.8774  0.4221  0.2281
 
              Baa    -0.0015    -0.815    -0.291    -0.272 -0.3145  0.9126 -0.2614
    34 H(1)   Bbb    -0.0013    -0.675    -0.241    -0.225 -0.5421  0.0534  0.8386
              Bcc     0.0028     1.490     0.532     0.497  0.7792  0.4054  0.4780
 
              Baa    -0.0020    -1.063    -0.379    -0.355 -0.0095 -0.6949  0.7190
    35 H(1)   Bbb    -0.0016    -0.877    -0.313    -0.292 -0.3101  0.6857  0.6586
              Bcc     0.0036     1.940     0.692     0.647  0.9507  0.2168  0.2220
 
              Baa    -0.0020    -1.077    -0.384    -0.359 -0.4645  0.4439  0.7663
    36 H(1)   Bbb    -0.0018    -0.960    -0.342    -0.320 -0.3742  0.6859 -0.6241
              Bcc     0.0038     2.037     0.727     0.679  0.8026  0.5766  0.1525
 
              Baa    -0.0047    -0.628    -0.224    -0.209  0.0968  0.7521  0.6520
    37 C(13)  Bbb    -0.0044    -0.586    -0.209    -0.196  0.5363 -0.5912  0.6024
              Bcc     0.0090     1.214     0.433     0.405  0.8385  0.2914 -0.4605
 
              Baa    -0.0022    -1.198    -0.428    -0.400  0.3150 -0.6187  0.7197
    38 H(1)   Bbb    -0.0017    -0.916    -0.327    -0.306 -0.1191  0.7266  0.6767
              Bcc     0.0040     2.115     0.755     0.705  0.9416  0.2989 -0.1552
 
              Baa    -0.0019    -1.006    -0.359    -0.336  0.4379 -0.1565  0.8853
    39 H(1)   Bbb    -0.0012    -0.647    -0.231    -0.216  0.0776  0.9876  0.1362
              Bcc     0.0031     1.653     0.590     0.551  0.8957 -0.0091 -0.4446
 
              Baa    -0.0025    -1.314    -0.469    -0.438  0.2809  0.5927  0.7548
    40 H(1)   Bbb    -0.0018    -0.963    -0.343    -0.321 -0.5812  0.7309 -0.3576
              Bcc     0.0043     2.276     0.812     0.759  0.7637  0.3383 -0.5499
 
              Baa    -0.0039    -0.520    -0.186    -0.174  0.1289  0.2193  0.9671
    41 C(13)  Bbb    -0.0025    -0.334    -0.119    -0.112  0.2688  0.9310 -0.2469
              Bcc     0.0064     0.855     0.305     0.285  0.9545 -0.2918 -0.0611
 
              Baa    -0.0023    -1.212    -0.432    -0.404  0.2347  0.0929  0.9676
    42 H(1)   Bbb    -0.0018    -0.941    -0.336    -0.314  0.3425  0.9237 -0.1718
              Bcc     0.0040     2.153     0.768     0.718  0.9097 -0.3718 -0.1850
 
              Baa    -0.0024    -1.287    -0.459    -0.429 -0.0460  0.3950  0.9175
    43 H(1)   Bbb    -0.0021    -1.143    -0.408    -0.381  0.2250  0.8990 -0.3758
              Bcc     0.0046     2.430     0.867     0.811  0.9733 -0.1891  0.1302
 
              Baa    -0.0053    -2.812    -1.003    -0.938 -0.0506  0.0764  0.9958
    44 H(1)   Bbb    -0.0039    -2.089    -0.745    -0.697  0.4542  0.8897 -0.0452
              Bcc     0.0092     4.901     1.749     1.635  0.8894 -0.4500  0.0797
 
              Baa    -0.0053    -0.707    -0.252    -0.236  0.1499  0.9830 -0.1057
    45 C(13)  Bbb    -0.0045    -0.609    -0.217    -0.203  0.6866 -0.0266  0.7266
              Bcc     0.0098     1.316     0.470     0.439  0.7114 -0.1816 -0.6789
 
              Baa    -0.0086    -4.584    -1.636    -1.529  0.4946 -0.4114  0.7656
    46 H(1)   Bbb    -0.0067    -3.552    -1.267    -1.185  0.5694  0.8189  0.0721
              Bcc     0.0152     8.136     2.903     2.714  0.6566 -0.4003 -0.6393
 
              Baa    -0.0049    -2.609    -0.931    -0.870 -0.3559  0.9034 -0.2392
    47 H(1)   Bbb    -0.0045    -2.382    -0.850    -0.794  0.7237  0.4284  0.5410
              Bcc     0.0094     4.991     1.781     1.665 -0.5912 -0.0194  0.8063
 
              Baa    -0.0027    -1.450    -0.517    -0.484  0.4086 -0.6055  0.6830
    48 H(1)   Bbb    -0.0022    -1.183    -0.422    -0.395  0.5626  0.7563  0.3339
              Bcc     0.0049     2.633     0.940     0.878  0.7187 -0.2478 -0.6497
 
              Baa    -0.0043    -0.574    -0.205    -0.191  0.4905  0.7015 -0.5170
    49 C(13)  Bbb    -0.0038    -0.516    -0.184    -0.172 -0.4587  0.7123  0.5312
              Bcc     0.0081     1.090     0.389     0.363  0.7409 -0.0234  0.6712
 
              Baa    -0.0023    -1.239    -0.442    -0.413  0.5458  0.7229 -0.4236
    50 H(1)   Bbb    -0.0021    -1.115    -0.398    -0.372 -0.4852  0.6849  0.5436
              Bcc     0.0044     2.354     0.840     0.785  0.6831 -0.0912  0.7246
 
              Baa    -0.0066    -3.527    -1.259    -1.177  0.5517  0.6680 -0.4993
    51 H(1)   Bbb    -0.0060    -3.222    -1.150    -1.075 -0.5568  0.7408  0.3758
              Bcc     0.0126     6.749     2.408     2.251  0.6209  0.0707  0.7807
 
              Baa    -0.0033    -1.782    -0.636    -0.594 -0.4157 -0.4002  0.8167
    52 H(1)   Bbb    -0.0028    -1.496    -0.534    -0.499 -0.3148  0.9058  0.2837
              Bcc     0.0061     3.278     1.170     1.093  0.8533  0.1391  0.5026
 
              Baa    -0.0040    -0.541    -0.193    -0.180 -0.2563 -0.1375  0.9568
    53 C(13)  Bbb    -0.0039    -0.525    -0.187    -0.175  0.3544  0.9075  0.2254
              Bcc     0.0079     1.066     0.380     0.356  0.8993 -0.3968  0.1839
 
              Baa    -0.0017    -0.887    -0.317    -0.296  0.3319  0.9170  0.2213
    54 H(1)   Bbb    -0.0013    -0.686    -0.245    -0.229 -0.5035 -0.0262  0.8636
              Bcc     0.0029     1.573     0.561     0.525  0.7977 -0.3981  0.4530
 
              Baa    -0.0021    -1.106    -0.395    -0.369 -0.0213  0.6663  0.7454
    55 H(1)   Bbb    -0.0017    -0.901    -0.321    -0.300  0.2601  0.7235 -0.6394
              Bcc     0.0038     2.007     0.716     0.669  0.9653 -0.1803  0.1887
 
              Baa    -0.0021    -1.124    -0.401    -0.375 -0.4969 -0.5965  0.6303
    56 H(1)   Bbb    -0.0018    -0.962    -0.343    -0.321  0.2896  0.5707  0.7684
              Bcc     0.0039     2.086     0.744     0.696  0.8181 -0.5644  0.1108
 
              Baa    -0.0043    -0.574    -0.205    -0.191 -0.2632  0.5511  0.7918
    57 C(13)  Bbb    -0.0038    -0.508    -0.181    -0.169  0.7876  0.5967 -0.1536
              Bcc     0.0081     1.081     0.386     0.361  0.5571 -0.5833  0.5911
 
              Baa    -0.0035    -1.886    -0.673    -0.629 -0.2347  0.3343  0.9128
    58 H(1)   Bbb    -0.0028    -1.485    -0.530    -0.495  0.8149  0.5796 -0.0028
              Bcc     0.0063     3.371     1.203     1.124 -0.5300  0.7431 -0.4084
 
              Baa    -0.0068    -3.615    -1.290    -1.206  0.6906 -0.3465 -0.6348
    59 H(1)   Bbb    -0.0060    -3.228    -1.152    -1.077  0.6222  0.7322  0.2772
              Bcc     0.0128     6.843     2.442     2.283  0.3688 -0.5864  0.7213
 
              Baa    -0.0023    -1.241    -0.443    -0.414 -0.0588  0.7672  0.6387
    60 H(1)   Bbb    -0.0021    -1.120    -0.400    -0.374  0.8516  0.3724 -0.3690
              Bcc     0.0044     2.361     0.842     0.788  0.5209 -0.5222  0.6753
 
              Baa    -0.0050    -0.677    -0.242    -0.226  0.7464  0.0155  0.6654
    61 C(13)  Bbb    -0.0046    -0.613    -0.219    -0.204 -0.1258  0.9850  0.1181
              Bcc     0.0096     1.290     0.460     0.430 -0.6535 -0.1719  0.7371
 
              Baa    -0.0084    -4.462    -1.592    -1.488  0.5873  0.4101  0.6978
    62 H(1)   Bbb    -0.0059    -3.171    -1.132    -1.058 -0.5520  0.8335 -0.0252
              Bcc     0.0143     7.634     2.724     2.546 -0.5919 -0.3704  0.7159
 
              Baa    -0.0047    -2.484    -0.886    -0.828  0.8607  0.0587  0.5058
    63 H(1)   Bbb    -0.0039    -2.093    -0.747    -0.698 -0.0391  0.9980 -0.0493
              Bcc     0.0086     4.577     1.633     1.527 -0.5076  0.0227  0.8613
 
              Baa    -0.0026    -1.366    -0.487    -0.456  0.5321  0.5105  0.6755
    64 H(1)   Bbb    -0.0020    -1.086    -0.387    -0.362 -0.5128  0.8291 -0.2226
              Bcc     0.0046     2.452     0.875     0.818 -0.6738 -0.2280  0.7029
 
              Baa    -0.0043    -0.580    -0.207    -0.194  0.2246 -0.6154  0.7556
    65 C(13)  Bbb    -0.0041    -0.553    -0.197    -0.185  0.4989  0.7386  0.4533
              Bcc     0.0084     1.134     0.404     0.378  0.8370 -0.2752 -0.4729
 
              Baa    -0.0022    -1.159    -0.414    -0.387  0.3290  0.6338  0.7000
    66 H(1)   Bbb    -0.0017    -0.909    -0.324    -0.303  0.0785  0.7204 -0.6891
              Bcc     0.0039     2.068     0.738     0.690  0.9411 -0.2817 -0.1873
 
              Baa    -0.0018    -0.966    -0.345    -0.322  0.4723  0.1380  0.8705
    67 H(1)   Bbb    -0.0012    -0.621    -0.222    -0.207 -0.0741  0.9904 -0.1169
              Bcc     0.0030     1.587     0.566     0.529  0.8783  0.0093 -0.4780
 
              Baa    -0.0024    -1.276    -0.455    -0.425  0.3660 -0.5164  0.7742
    68 H(1)   Bbb    -0.0017    -0.925    -0.330    -0.308  0.5555  0.7887  0.2634
              Bcc     0.0041     2.200     0.785     0.734  0.7466 -0.3336 -0.5755
 
              Baa    -0.0039    -0.528    -0.188    -0.176  0.1675 -0.1279  0.9775
    69 C(13)  Bbb    -0.0025    -0.341    -0.122    -0.114 -0.2577  0.9514  0.1687
              Bcc     0.0065     0.869     0.310     0.290  0.9516  0.2802 -0.1264
 
              Baa    -0.0023    -1.205    -0.430    -0.402  0.2975 -0.0966  0.9498
    70 H(1)   Bbb    -0.0017    -0.921    -0.329    -0.307 -0.3233  0.9259  0.1954
              Bcc     0.0040     2.126     0.759     0.709  0.8983  0.3652 -0.2442
 
              Baa    -0.0025    -1.331    -0.475    -0.444  0.0087 -0.4055  0.9141
    71 H(1)   Bbb    -0.0022    -1.156    -0.412    -0.386 -0.2112  0.8927  0.3980
              Bcc     0.0047     2.487     0.887     0.830  0.9774  0.1965  0.0778
 
              Baa    -0.0055    -2.912    -1.039    -0.971  0.0544 -0.1077  0.9927
    72 H(1)   Bbb    -0.0040    -2.150    -0.767    -0.717 -0.4552  0.8822  0.1207
              Bcc     0.0095     5.062     1.806     1.688  0.8887  0.4585  0.0011
 
              Baa    -0.3842    27.800     9.920     9.273  0.0637 -0.0921  0.9937
    73 O(17)  Bbb     0.1223    -8.850    -3.158    -2.952  0.9956 -0.0621 -0.0696
              Bcc     0.2619   -18.950    -6.762    -6.321  0.0682  0.9938  0.0878
 
              Baa    -0.0554    -7.428    -2.650    -2.478  0.1607  0.9864  0.0344
    74 C(13)  Bbb    -0.0381    -5.115    -1.825    -1.706  0.9861 -0.1589 -0.0493
              Bcc     0.0935    12.542     4.475     4.184  0.0431 -0.0418  0.9982
 
              Baa    -0.0305   -16.299    -5.816    -5.437  0.9975  0.0213 -0.0677
    75 H(1)   Bbb    -0.0084    -4.477    -1.597    -1.493 -0.0495  0.8927 -0.4480
              Bcc     0.0389    20.776     7.413     6.930  0.0509  0.4502  0.8915
 
              Baa    -0.0702     5.077     1.812     1.694  0.0296  0.9981  0.0534
    76 O(17)  Bbb    -0.0334     2.419     0.863     0.807  0.9979 -0.0264 -0.0587
              Bcc     0.1036    -7.497    -2.675    -2.501  0.0572 -0.0550  0.9968
 

 ---------------------------------------------------------------------------------

 Unable to Open any file for archive entry.
 1\1\GINC-NODE106\SP\UB3LYP\def2SVP\C24H45N1O3P2Ru1(3)\DO57CIG\16-Jan-2
 025\0\\# ub3lyp scrf=(smd,solvent=water) def2svp empiricaldispersion=g
 d3bj int=ultrafine scf=xqc guess=read\\A_Ru_Cis_DFT_B3LYP_def2svp_smd_
 water_T_Opt_3MLCT_from_3MLCT_trans\\0,3\P,0,2.412868,-0.094449,-0.1442
 65\N,0,-0.014745,1.67011,-0.067832\C,0,2.18893,1.497128,-1.074514\H,0,
 3.113566,2.087781,-1.109246\H,0,1.953738,1.189827,-2.107226\O,0,-0.142
 639,-1.080228,-2.140182\P,0,-2.428322,-0.088089,0.052854\C,0,1.054182,
 2.32638,-0.534279\C,0,1.114542,3.72489,-0.504876\H,0,1.992958,4.241783
 ,-0.894696\C,0,0.04121,4.42916,0.042209\H,0,0.062461,5.520526,0.084666
 \C,0,-1.057448,3.726797,0.538424\H,0,-1.91242,4.245906,0.974803\C,0,-1
 .05312,2.328339,0.459942\C,0,-2.212963,1.510172,0.968938\H,0,-3.132233
 ,2.11112,0.970919\H,0,-2.011577,1.219289,2.014087\Ru,0,-0.01216227,-1.
 01070848,-0.05203733\H,0,0.692632,-1.43269,-2.464648\C,0,-3.251867,0.4
 14832,-1.597843\C,0,-3.689242,-1.026507,1.141738\C,0,3.672968,-1.03308
 4,-1.235163\C,0,3.23895,0.41126,1.50261\C,0,2.316777,1.435151,2.194192
 \H,0,2.315062,2.400477,1.671025\H,0,1.27969,1.092861,2.284222\H,0,2.70
 2246,1.612888,3.211336\C,0,3.382488,-0.831614,2.403768\H,0,3.521161,-0
 .503169,3.446828\H,0,2.501202,-1.483887,2.374833\H,0,4.256058,-1.43457
 8,2.131644\C,0,4.614888,1.069055,1.328299\H,0,4.960743,1.42544,2.3136\
 H,0,5.368667,0.364833,0.953429\H,0,4.578807,1.940314,0.657466\C,0,4.74
 511,-0.114754,-1.842777\H,0,5.322707,0.432533,-1.089586\H,0,5.451726,-
 0.73695,-2.41789\H,0,4.308508,0.612477,-2.542041\C,0,4.330706,-2.15353
 1,-0.417947\H,0,4.873638,-2.822089,-1.106183\H,0,5.057683,-1.766837,0.
 307096\H,0,3.584063,-2.758676,0.11881\C,0,2.906494,-1.687136,-2.394227
 \H,0,2.185308,-2.432688,-2.030052\H,0,2.39151,-0.942841,-3.019376\H,0,
 3.627573,-2.211705,-3.042014\C,0,-3.305865,-0.812024,-2.526736\H,0,-3.
 622781,-0.480335,-3.530174\H,0,-2.318534,-1.282973,-2.614999\H,0,-4.02
 9577,-1.561929,-2.187181\C,0,-4.659288,1.003095,-1.433168\H,0,-5.00036
 6,1.37308,-2.415293\H,0,-5.388741,0.25561,-1.095253\H,0,-4.677611,1.85
 4828,-0.736724\C,0,-2.365234,1.487083,-2.258986\H,0,-2.389092,2.438805
 ,-1.710576\H,0,-1.322309,1.164388,-2.356179\H,0,-2.758542,1.681744,-3.
 270545\C,0,-2.923237,-1.658418,2.312524\H,0,-2.185951,-2.395359,1.9665
 45\H,0,-2.408753,-0.907964,2.926963\H,0,-3.645996,-2.180454,2.961255\C
 ,0,-4.776892,-0.114107,1.731119\H,0,-5.362472,0.410039,0.968029\H,0,-5
 .474454,-0.736122,2.317381\H,0,-4.352501,0.632985,2.417059\C,0,-4.3270
 81,-2.163039,0.330299\H,0,-4.882085,-2.821634,1.018632\H,0,-5.039442,-
 1.794447,-0.418833\H,0,-3.566315,-2.775045,-0.178514\O,0,0.02282234,-3
 .3982148,-0.29409029\C,0,0.05929373,-1.04636848,1.76684967\H,0,-0.0405
 4066,-3.4003028,-1.26489829\O,0,0.12707673,-1.08763748,2.93618267\\Ver
 sion=ES64L-G16RevC.02\State=3-A\HF=-1998.9391537\S2=2.022316\S2-1=0.\S
 2A=2.000277\RMSD=1.993e-09\Dipole=0.8578411,5.9655233,0.1101871\Quadru
 pole=29.9590683,-15.3778038,-14.5812645,-1.4871576,-8.8996352,3.078131
 9\PG=C01 [X(C24H45N1O3P2Ru1)]\\@
 The archive entry for this job was punched.


 IT IS DOUBTED WHETHER A MAN EVER BRINGS HIS FACULTIES TO BEAR WITH THEIR FULL FORCE
 ON A SUBJECT UNTIL HE WRITES UPON IT.

                          -- CICERO
 Job cpu time:       0 days  2 hours 27 minutes 52.8 seconds.
 Elapsed time:       0 days  0 hours  6 minutes 44.9 seconds.
 File lengths (MBytes):  RWF=    825 Int=      0 D2E=      0 Chk=     67 Scr=      1
 Normal termination of Gaussian 16 at Thu Jan 16 18:21:21 2025.
