 Entering Gaussian System, Link 0=g16
 Input=A_Ru_Cis_straight_CO_DFT_B3LYP_def2SVP_smd_water_T_3MC_freezedScan_2_1.gjf
 Output=A_Ru_Cis_straight_CO_DFT_B3LYP_def2SVP_smd_water_T_3MC_freezedScan_2_1.log
 Initial command:
 /cluster/apps/gaussian/g16_c02/g16/l1.exe "/beegfs/do57cig/gauss2178638/Gau-2712068.inp" -scrdir="/beegfs/do57cig/gauss2178638/"
 Default CPUs for threads: 0-23
 Default is to use a total of  24 processors:
                               24 via shared-memory
                                1 via Linda
 Entering Link 1 = /cluster/apps/gaussian/g16_c02/g16/l1.exe PID=   2712070.
  
 Copyright (c) 1988-2021, Gaussian, Inc.  All Rights Reserved.
  
 This is part of the Gaussian(R) 16 program.  It is based on
 the Gaussian(R) 09 system (copyright 2009, Gaussian, Inc.),
 the Gaussian(R) 03 system (copyright 2003, Gaussian, Inc.),
 the Gaussian(R) 98 system (copyright 1998, Gaussian, Inc.),
 the Gaussian(R) 94 system (copyright 1995, Gaussian, Inc.),
 the Gaussian 92(TM) system (copyright 1992, Gaussian, Inc.),
 the Gaussian 90(TM) system (copyright 1990, Gaussian, Inc.),
 the Gaussian 88(TM) system (copyright 1988, Gaussian, Inc.),
 the Gaussian 86(TM) system (copyright 1986, Carnegie Mellon
 University), and the Gaussian 82(TM) system (copyright 1983,
 Carnegie Mellon University). Gaussian is a federally registered
 trademark of Gaussian, Inc.
  
 This software contains proprietary and confidential information,
 including trade secrets, belonging to Gaussian, Inc.
  
 This software is provided under written license and may be
 used, copied, transmitted, or stored only in accord with that
 written license.
  
 The following legend is applicable only to US Government
 contracts under FAR:
  
                    RESTRICTED RIGHTS LEGEND
  
 Use, reproduction and disclosure by the US Government is
 subject to restrictions as set forth in subparagraphs (a)
 and (c) of the Commercial Computer Software - Restricted
 Rights clause in FAR 52.227-19.
  
 Gaussian, Inc.
 340 Quinnipiac St., Bldg. 40, Wallingford CT 06492
  
  
 ---------------------------------------------------------------
 Warning -- This program may not be used in any manner that
 competes with the business of Gaussian, Inc. or will provide
 assistance to any competitor of Gaussian, Inc.  The licensee
 of this program is prohibited from giving any competitor of
 Gaussian, Inc. access to this program.  By using this program,
 the user acknowledges that Gaussian, Inc. is engaged in the
 business of creating and licensing software in the field of
 computational chemistry and represents and warrants to the
 licensee that it is not a competitor of Gaussian, Inc. and that
 it will not use this program in any manner prohibited above.
 ---------------------------------------------------------------
  

 Cite this work as:
 Gaussian 16, Revision C.02,
 M. J. Frisch, G. W. Trucks, H. B. Schlegel, G. E. Scuseria, 
 M. A. Robb, J. R. Cheeseman, G. Scalmani, V. Barone, 
 G. A. Petersson, H. Nakatsuji, X. Li, M. Caricato, A. V. Marenich, 
 J. Bloino, B. G. Janesko, R. Gomperts, B. Mennucci, H. P. Hratchian, 
 J. V. Ortiz, A. F. Izmaylov, J. L. Sonnenberg, D. Williams-Young, 
 F. Ding, F. Lipparini, F. Egidi, J. Goings, B. Peng, A. Petrone, 
 T. Henderson, D. Ranasinghe, V. G. Zakrzewski, J. Gao, N. Rega, 
 G. Zheng, W. Liang, M. Hada, M. Ehara, K. Toyota, R. Fukuda, 
 J. Hasegawa, M. Ishida, T. Nakajima, Y. Honda, O. Kitao, H. Nakai, 
 T. Vreven, K. Throssell, J. A. Montgomery, Jr., J. E. Peralta, 
 F. Ogliaro, M. J. Bearpark, J. J. Heyd, E. N. Brothers, K. N. Kudin, 
 V. N. Staroverov, T. A. Keith, R. Kobayashi, J. Normand, 
 K. Raghavachari, A. P. Rendell, J. C. Burant, S. S. Iyengar, 
 J. Tomasi, M. Cossi, J. M. Millam, M. Klene, C. Adamo, R. Cammi, 
 J. W. Ochterski, R. L. Martin, K. Morokuma, O. Farkas, 
 J. B. Foresman, and D. J. Fox, Gaussian, Inc., Wallingford CT, 2019.
 
 ******************************************
 Gaussian 16:  ES64L-G16RevC.02  7-Dec-2021
                16-Jan-2025 
 ******************************************
 %chk=A_Ru_Cis_straight_CO_DFT_B3LYP_def2SVP_smd_water_T_3MC_freezedScan_2_1.chk
 %Oldchk=A_Ru_Cis_straight_CO_DFT_B3LYP_def2SVP_smd_water_T_3MC_tweaked_geom.chk
 SetSPE:  set environment variable "OMP_PROC_BIND" = "true"
 SetSPE:  set environment variable "OMP_PLACES" = "{0},{1},{2},{3},{4},{5},{6},{7},{8},{9},{10},{11},{12},{13},{14},{15},{16},{17},{18},{19},{20},{21},{22},{23}"
 Copying data from "A_Ru_Cis_straight_CO_DFT_B3LYP_def2SVP_smd_water_T_3MC_tweaked_geom.chk" to current chk file "A_Ru_Cis_straight_CO_DFT_B3LYP_def2SVP_smd_water_T_3MC_freezedScan_2_1.chk"
 IOpt=  2 FromEx=T IUOpen= 4 IOptOp= 5 NList=   0 IFRang= 0 IUIn= 4 IUOut= 2.
 ----------------------------------------------------------------------
 # ub3lyp scrf=(smd,solvent=water) def2svp empiricaldispersion=gd3bj in
 t=ultrafine scf=xqc guess=read
 ----------------------------------------------------------------------
 1/38=1,172=1/1;
 2/12=2,17=6,18=5,40=1/2;
 3/5=43,7=101,11=2,25=1,30=1,70=32201,72=1,74=-5,75=-5,116=2,124=41/1,2,3;
 4/5=1/1;
 5/5=2,8=3,13=1,38=6,53=1/2,8;
 6/7=2,8=2,9=2,10=2,28=1/1;
 99/5=1,9=1/99;
 ----------------------------------------------------------------------
 A_Ru_Cis_straight_CO_DFT_B3LYP_def2SVP_smd_water_T_3MC_freezedScan_2_1
 ----------------------------------------------------------------------
 Symbolic Z-matrix:
 Charge =  0 Multiplicity = 3
 P                     2.41287  -0.09445  -0.14427 
 N                    -0.01475   1.67011  -0.06783 
 C                     2.18893   1.49713  -1.07451 
 H                     3.11357   2.08778  -1.10925 
 H                     1.95374   1.18983  -2.10723 
 O                    -0.14264  -1.08023  -2.14018 
 P                    -2.42832  -0.08809   0.05285 
 C                     1.05418   2.32638  -0.53428 
 C                     1.11454   3.72489  -0.50488 
 H                     1.99296   4.24178  -0.8947 
 C                     0.04121   4.42916   0.04221 
 H                     0.06246   5.52053   0.08467 
 C                    -1.05745   3.7268    0.53842 
 H                    -1.91242   4.24591   0.9748 
 C                    -1.05312   2.32834   0.45994 
 C                    -2.21296   1.51017   0.96894 
 H                    -3.13223   2.11112   0.97092 
 H                    -2.01158   1.21929   2.01409 
 Ru                   -0.01216  -1.01071  -0.05204 
 H                     0.69263  -1.43269  -2.46465 
 C                    -3.25187   0.41483  -1.59784 
 C                    -3.68924  -1.02651   1.14174 
 C                     3.67297  -1.03308  -1.23516 
 C                     3.23895   0.41126   1.50261 
 C                     2.31678   1.43515   2.19419 
 H                     2.31506   2.40048   1.67103 
 H                     1.27969   1.09286   2.28422 
 H                     2.70225   1.61289   3.21134 
 C                     3.38249  -0.83161   2.40377 
 H                     3.52116  -0.50317   3.44683 
 H                     2.5012   -1.48389   2.37483 
 H                     4.25606  -1.43458   2.13164 
 C                     4.61489   1.06906   1.3283 
 H                     4.96074   1.42544   2.3136 
 H                     5.36867   0.36483   0.95343 
 H                     4.57881   1.94031   0.65747 
 C                     4.74511  -0.11475  -1.84278 
 H                     5.32271   0.43253  -1.08959 
 H                     5.45173  -0.73695  -2.41789 
 H                     4.30851   0.61248  -2.54204 
 C                     4.33071  -2.15353  -0.41795 
 H                     4.87364  -2.82209  -1.10618 
 H                     5.05768  -1.76684   0.3071 
 H                     3.58406  -2.75868   0.11881 
 C                     2.90649  -1.68714  -2.39423 
 H                     2.18531  -2.43269  -2.03005 
 H                     2.39151  -0.94284  -3.01938 
 H                     3.62757  -2.21171  -3.04201 
 C                    -3.30587  -0.81202  -2.52674 
 H                    -3.62278  -0.48034  -3.53017 
 H                    -2.31853  -1.28297  -2.615 
 H                    -4.02958  -1.56193  -2.18718 
 C                    -4.65929   1.0031   -1.43317 
 H                    -5.00037   1.37308  -2.41529 
 H                    -5.38874   0.25561  -1.09525 
 H                    -4.67761   1.85483  -0.73672 
 C                    -2.36523   1.48708  -2.25899 
 H                    -2.38909   2.43881  -1.71058 
 H                    -1.32231   1.16439  -2.35618 
 H                    -2.75854   1.68174  -3.27055 
 C                    -2.92324  -1.65842   2.31252 
 H                    -2.18595  -2.39536   1.96655 
 H                    -2.40875  -0.90796   2.92696 
 H                    -3.646    -2.18045   2.96126 
 C                    -4.77689  -0.11411   1.73112 
 H                    -5.36247   0.41004   0.96803 
 H                    -5.47445  -0.73612   2.31738 
 H                    -4.3525    0.63299   2.41706 
 C                    -4.32708  -2.16304   0.3303 
 H                    -4.88209  -2.82163   1.01863 
 H                    -5.03944  -1.79445  -0.41883 
 H                    -3.56632  -2.77505  -0.17851 
 O                     0.01845  -3.09978  -0.26383 
 C                     0.05929  -1.04637   1.76685 
 H                    -0.04491  -3.10186  -1.23464 
 O                     0.12708  -1.08764   2.93618 
 
 Stoichiometry    C24H45NO3P2Ru(3)
 Framework group  C1[X(C24H45NO3P2Ru)]
 Deg. of freedom   222
 Full point group                 C1      NOp   1
 Largest Abelian subgroup         C1      NOp   1
 Largest concise Abelian subgroup C1      NOp   1
                         Standard orientation:                         
 ---------------------------------------------------------------------
 Center     Atomic      Atomic             Coordinates (Angstroms)
 Number     Number       Type             X           Y           Z
 ---------------------------------------------------------------------
      1         15           0        2.412889   -0.096066   -0.144297
      2          7           0       -0.014711    1.668597   -0.069848
      3          6           0        2.188965    1.494469   -1.076330
      4          1           0        3.113606    2.085076   -1.111722
      5          1           0        1.953773    1.186013   -2.108698
      6          8           0       -0.142621   -1.084062   -2.139114
      7         15           0       -2.428302   -0.089447    0.052803
      8          6           0        1.054223    2.324335   -0.537028
      9          6           0        1.114593    3.722877   -0.509193
     10          1           0        1.993014    4.239326   -0.899590
     11          6           0        0.041266    4.427768    0.037100
     12          1           0        0.062525    5.519181    0.078334
     13          6           0       -1.057399    3.725970    0.534099
     14          1           0       -1.912368    4.245575    0.969894
     15          6           0       -1.053082    2.327425    0.457185
     16          6           0       -2.212932    1.509838    0.967095
     17          1           0       -3.132198    2.110795    0.968400
     18          1           0       -2.011551    1.220125    2.012570
     19         44           0       -0.012149   -1.012202   -0.051048
     20          1           0        0.692648   -1.436894   -2.463183
     21          6           0       -3.251839    0.411630   -1.598459
     22          6           0       -3.689232   -1.026634    1.142735
     23          6           0        3.672984   -1.035933   -1.234139
     24          6           0        3.238971    0.411483    1.502012
     25          6           0        2.316804    1.436155    2.192443
     26          1           0        2.315098    2.400894    1.668195
     27          1           0        1.279714    1.093974    2.282854
     28          1           0        2.702272    1.615029    3.209388
     29          6           0        3.382497   -0.830382    2.404563
     30          1           0        3.521170   -0.500769    3.447254
     31          1           0        2.501206   -1.482680    2.376357
     32          1           0        4.256063   -1.433657    2.133117
     33          6           0        4.614914    1.069071    1.326967
     34          1           0        4.960770    1.426558    2.311868
     35          1           0        5.368689    0.364423    0.952888
     36          1           0        4.578842    1.939578    0.655157
     37          6           0        4.745135   -0.118293   -1.842780
     38          1           0        5.322734    0.429834   -1.090202
     39          1           0        5.451747   -0.741139   -2.417193
     40          1           0        4.308540    0.608157   -2.542860
     41          6           0        4.330711   -2.155468   -0.415666
     42          1           0        4.873640   -2.824802   -1.103151
     43          1           0        5.057690   -1.767967    0.308944
     44          1           0        3.584062   -2.760005    0.121767
     45          6           0        2.906508   -1.691278   -2.392471
     46          1           0        2.185315   -2.436415   -2.027463
     47          1           0        2.391531   -0.947680   -3.018456
     48          1           0        3.627584   -2.216578   -3.039668
     49          6           0       -3.305844   -0.816266   -2.525976
     50          1           0       -3.622755   -0.485700   -3.529786
     51          1           0       -2.318517   -1.287322   -2.613709
     52          1           0       -4.029563   -1.565785   -2.185582
     53          6           0       -4.659256    1.000088   -1.434447
     54          1           0       -5.000328    1.368974   -2.416987
     55          1           0       -5.388715    0.252988   -1.095696
     56          1           0       -4.677574    1.852601   -0.738958
     57          6           0       -2.365196    1.483132   -2.260801
     58          1           0       -2.389048    2.435468   -1.713459
     59          1           0       -1.322273    1.160320   -2.357630
     60          1           0       -2.758500    1.676662   -3.272579
     61          6           0       -2.923234   -1.657238    2.314230
     62          1           0       -2.185953   -2.394572    1.969080
     63          1           0       -2.408746   -0.906100    2.927829
     64          1           0       -3.645999   -2.178541    2.963545
     65          6           0       -4.776876   -0.113566    1.731090
     66          1           0       -5.362450    0.409729    0.967412
     67          1           0       -5.474444   -0.734918    2.318048
     68          1           0       -4.352481    0.634292    2.416193
     69          6           0       -4.327077   -2.164070    0.332569
     70          1           0       -4.882088   -2.821889    1.021639
     71          1           0       -5.039434   -1.796313   -0.416977
     72          1           0       -3.566315   -2.776652   -0.175556
     73          8           0        0.018447   -3.101507   -0.260503
     74          6           0        0.059303   -1.045824    1.767878
     75          1           0       -0.044914   -3.104683   -1.231308
     76          8           0        0.127082   -1.085783    2.937256
 ---------------------------------------------------------------------
 Rotational constants (GHZ):           0.1877388           0.1023199           0.0928878
 Standard basis: def2SVP (5D, 7F)
 There are   719 symmetry adapted cartesian basis functions of A   symmetry.
 There are   684 symmetry adapted basis functions of A   symmetry.
   684 basis functions,  1154 primitive gaussians,   719 cartesian basis functions
   134 alpha electrons      132 beta electrons
       nuclear repulsion energy      4462.4670193574 Hartrees.
 NAtoms=   76 NActive=   76 NUniq=   76 SFac= 1.00D+00 NAtFMM=   60 NAOKFM=T Big=T
 Integral buffers will be    131072 words long.
 Raffenetti 2 integral format.
 Two-electron integral symmetry is turned on.
 Nuclear repulsion after empirical dispersion term =     4462.2434774785 Hartrees.
 ------------------------------------------------------------------------------
 Polarizable Continuum Model (PCM)
 =================================
 Model                : PCM.
 Atomic radii         : SMD-Coulomb.
 Polarization charges : Total charges.
 Charge compensation  : None.
 Solution method      : On-the-fly selection.
 Cavity type          : VdW (van der Waals Surface) (Alpha=1.000).
 Cavity algorithm     : GePol (No added spheres)
                        Default sphere list used, NSphG=   76.
                        Lebedev-Laikov grids with approx.  5.0 points / Ang**2.
                        Smoothing algorithm: York/Karplus (Gamma=1.0000).
                        Polarization charges: spherical gaussians, with
                                              point-specific exponents (IZeta= 3).
                        Self-potential: point-specific (ISelfS= 7).
                        Self-field    : sphere-specific E.n sum rule (ISelfD= 2).
 Solvent              : Water, Eps=  78.355300 Eps(inf)=   1.777849
 ------------------------------------------------------------------------------
 ------------------------------------------------------------------------------
 Atomic radii for non-electrostatic terms: SMD-CDS.
 ------------------------------------------------------------------------------
 Nuclear repulsion after PCM non-electrostatic terms =     4462.2622728224 Hartrees.
 One-electron integrals computed using PRISM.
   1 Symmetry operations used in ECPInt.
 ECPInt:  NShTT=   54615 NPrTT=  190596 LenC2=   47892 LenP2D=  113021.
 LDataN:  DoStor=T MaxTD1= 7 Len=  274
 NBasis=   684 RedAO= T EigKep=  4.91D-04  NBF=   684
 NBsUse=   684 1.00D-06 EigRej= -1.00D+00 NBFU=   684
 Defaulting to unpruned grid for atomic number  44.
 Initial guess from the checkpoint file:  "A_Ru_Cis_straight_CO_DFT_B3LYP_def2SVP_smd_water_T_3MC_freezedScan_2_1.chk"
 B after Tr=    -0.000000   -0.000000    0.000000
         Rot=    1.000000    0.000669    0.000002    0.000004 Ang=   0.08 deg.
 Initial guess <Sx>= 0.0000 <Sy>= 0.0000 <Sz>= 1.0000 <S**2>= 2.0202 S= 1.0067
 Requested convergence on RMS density matrix=1.00D-08 within  32 cycles.
 Requested convergence on MAX density matrix=1.00D-06.
 Requested convergence on             energy=1.00D-06.
 No special actions if energy rises.
 Defaulting to unpruned grid for atomic number  44.
 Defaulting to unpruned grid for atomic number  44.
 Defaulting to unpruned grid for atomic number  44.
 Defaulting to unpruned grid for atomic number  44.
 Defaulting to unpruned grid for atomic number  44.
 Defaulting to unpruned grid for atomic number  44.
 Defaulting to unpruned grid for atomic number  44.
 Defaulting to unpruned grid for atomic number  44.
 Defaulting to unpruned grid for atomic number  44.
 Defaulting to unpruned grid for atomic number  44.
 Defaulting to unpruned grid for atomic number  44.
 Defaulting to unpruned grid for atomic number  44.
 Defaulting to unpruned grid for atomic number  44.
 Defaulting to unpruned grid for atomic number  44.
 Defaulting to unpruned grid for atomic number  44.
 Defaulting to unpruned grid for atomic number  44.
 Defaulting to unpruned grid for atomic number  44.
 Defaulting to unpruned grid for atomic number  44.
 Defaulting to unpruned grid for atomic number  44.
 Defaulting to unpruned grid for atomic number  44.
 Defaulting to unpruned grid for atomic number  44.
 Defaulting to unpruned grid for atomic number  44.
 Defaulting to unpruned grid for atomic number  44.
 Defaulting to unpruned grid for atomic number  44.
 Inv3:  Mode=1 IEnd=    66270000.
 Iteration    1 A*A^-1 deviation from unit magnitude is 4.22D-15 for   3816.
 Iteration    1 A*A^-1 deviation from orthogonality  is 2.53D-15 for   4578   2475.
 Iteration    1 A^-1*A deviation from unit magnitude is 4.00D-15 for   3816.
 Iteration    1 A^-1*A deviation from orthogonality  is 8.44D-14 for   4610   3168.
 Error on total polarization charges =  0.07824
 SCF Done:  E(UB3LYP) =  -1998.94905329     A.U. after   13 cycles
            NFock= 13  Conv=0.25D-08     -V/T= 2.0403
 <Sx>= 0.0000 <Sy>= 0.0000 <Sz>= 1.0000 <S**2>= 2.0203 S= 1.0068
 <L.S>=  0.00000000000    
 SMD-CDS (non-electrostatic) energy       (kcal/mol) =      11.79
 (included in total energy above)
 Annihilation of the first spin contaminant:
 S**2 before annihilation     2.0203,   after     2.0002
 QCSCF skips out because SCF is already converged.

 **********************************************************************

            Population analysis using the SCF Density.

 **********************************************************************

 Orbital symmetries:
 Alpha Orbitals:
       Occupied  (A) (A) (A) (A) (A) (A) (A) (A) (A) (A) (A) (A)
                 (A) (A) (A) (A) (A) (A) (A) (A) (A) (A) (A) (A)
                 (A) (A) (A) (A) (A) (A) (A) (A) (A) (A) (A) (A)
                 (A) (A) (A) (A) (A) (A) (A) (A) (A) (A) (A) (A)
                 (A) (A) (A) (A) (A) (A) (A) (A) (A) (A) (A) (A)
                 (A) (A) (A) (A) (A) (A) (A) (A) (A) (A) (A) (A)
                 (A) (A) (A) (A) (A) (A) (A) (A) (A) (A) (A) (A)
                 (A) (A) (A) (A) (A) (A) (A) (A) (A) (A) (A) (A)
                 (A) (A) (A) (A) (A) (A) (A) (A) (A) (A) (A) (A)
                 (A) (A) (A) (A) (A) (A) (A) (A) (A) (A) (A) (A)
                 (A) (A) (A) (A) (A) (A) (A) (A) (A) (A) (A) (A)
                 (A) (A)
       Virtual   (A) (A) (A) (A) (A) (A) (A) (A) (A) (A) (A) (A)
                 (A) (A) (A) (A) (A) (A) (A) (A) (A) (A) (A) (A)
                 (A) (A) (A) (A) (A) (A) (A) (A) (A) (A) (A) (A)
                 (A) (A) (A) (A) (A) (A) (A) (A) (A) (A) (A) (A)
                 (A) (A) (A) (A) (A) (A) (A) (A) (A) (A) (A) (A)
                 (A) (A) (A) (A) (A) (A) (A) (A) (A) (A) (A) (A)
                 (A) (A) (A) (A) (A) (A) (A) (A) (A) (A) (A) (A)
                 (A) (A) (A) (A) (A) (A) (A) (A) (A) (A) (A) (A)
                 (A) (A) (A) (A) (A) (A) (A) (A) (A) (A) (A) (A)
                 (A) (A) (A) (A) (A) (A) (A) (A) (A) (A) (A) (A)
                 (A) (A) (A) (A) (A) (A) (A) (A) (A) (A) (A) (A)
                 (A) (A) (A) (A) (A) (A) (A) (A) (A) (A) (A) (A)
                 (A) (A) (A) (A) (A) (A) (A) (A) (A) (A) (A) (A)
                 (A) (A) (A) (A) (A) (A) (A) (A) (A) (A) (A) (A)
                 (A) (A) (A) (A) (A) (A) (A) (A) (A) (A) (A) (A)
                 (A) (A) (A) (A) (A) (A) (A) (A) (A) (A) (A) (A)
                 (A) (A) (A) (A) (A) (A) (A) (A) (A) (A) (A) (A)
                 (A) (A) (A) (A) (A) (A) (A) (A) (A) (A) (A) (A)
                 (A) (A) (A) (A) (A) (A) (A) (A) (A) (A) (A) (A)
                 (A) (A) (A) (A) (A) (A) (A) (A) (A) (A) (A) (A)
                 (A) (A) (A) (A) (A) (A) (A) (A) (A) (A) (A) (A)
                 (A) (A) (A) (A) (A) (A) (A) (A) (A) (A) (A) (A)
                 (A) (A) (A) (A) (A) (A) (A) (A) (A) (A) (A) (A)
                 (A) (A) (A) (A) (A) (A) (A) (A) (A) (A) (A) (A)
                 (A) (A) (A) (A) (A) (A) (A) (A) (A) (A) (A) (A)
                 (A) (A) (A) (A) (A) (A) (A) (A) (A) (A) (A) (A)
                 (A) (A) (A) (A) (A) (A) (A) (A) (A) (A) (A) (A)
                 (A) (A) (A) (A) (A) (A) (A) (A) (A) (A) (A) (A)
                 (A) (A) (A) (A) (A) (A) (A) (A) (A) (A) (A) (A)
                 (A) (A) (A) (A) (A) (A) (A) (A) (A) (A) (A) (A)
                 (A) (A) (A) (A) (A) (A) (A) (A) (A) (A) (A) (A)
                 (A) (A) (A) (A) (A) (A) (A) (A) (A) (A) (A) (A)
                 (A) (A) (A) (A) (A) (A) (A) (A) (A) (A) (A) (A)
                 (A) (A) (A) (A) (A) (A) (A) (A) (A) (A) (A) (A)
                 (A) (A) (A) (A) (A) (A) (A) (A) (A) (A) (A) (A)
                 (A) (A) (A) (A) (A) (A) (A) (A) (A) (A) (A) (A)
                 (A) (A) (A) (A) (A) (A) (A) (A) (A) (A) (A) (A)
                 (A) (A) (A) (A) (A) (A) (A) (A) (A) (A) (A) (A)
                 (A) (A) (A) (A) (A) (A) (A) (A) (A) (A) (A) (A)
                 (A) (A) (A) (A) (A) (A) (A) (A) (A) (A) (A) (A)
                 (A) (A) (A) (A) (A) (A) (A) (A) (A) (A) (A) (A)
                 (A) (A) (A) (A) (A) (A) (A) (A) (A) (A) (A) (A)
                 (A) (A) (A) (A) (A) (A) (A) (A) (A) (A) (A) (A)
                 (A) (A) (A) (A) (A) (A) (A) (A) (A) (A) (A) (A)
                 (A) (A) (A) (A) (A) (A) (A) (A) (A) (A) (A) (A)
                 (A) (A) (A) (A) (A) (A) (A) (A) (A) (A)
 Beta  Orbitals:
       Occupied  (A) (A) (A) (A) (A) (A) (A) (A) (A) (A) (A) (A)
                 (A) (A) (A) (A) (A) (A) (A) (A) (A) (A) (A) (A)
                 (A) (A) (A) (A) (A) (A) (A) (A) (A) (A) (A) (A)
                 (A) (A) (A) (A) (A) (A) (A) (A) (A) (A) (A) (A)
                 (A) (A) (A) (A) (A) (A) (A) (A) (A) (A) (A) (A)
                 (A) (A) (A) (A) (A) (A) (A) (A) (A) (A) (A) (A)
                 (A) (A) (A) (A) (A) (A) (A) (A) (A) (A) (A) (A)
                 (A) (A) (A) (A) (A) (A) (A) (A) (A) (A) (A) (A)
                 (A) (A) (A) (A) (A) (A) (A) (A) (A) (A) (A) (A)
                 (A) (A) (A) (A) (A) (A) (A) (A) (A) (A) (A) (A)
                 (A) (A) (A) (A) (A) (A) (A) (A) (A) (A) (A) (A)
       Virtual   (A) (A) (A) (A) (A) (A) (A) (A) (A) (A) (A) (A)
                 (A) (A) (A) (A) (A) (A) (A) (A) (A) (A) (A) (A)
                 (A) (A) (A) (A) (A) (A) (A) (A) (A) (A) (A) (A)
                 (A) (A) (A) (A) (A) (A) (A) (A) (A) (A) (A) (A)
                 (A) (A) (A) (A) (A) (A) (A) (A) (A) (A) (A) (A)
                 (A) (A) (A) (A) (A) (A) (A) (A) (A) (A) (A) (A)
                 (A) (A) (A) (A) (A) (A) (A) (A) (A) (A) (A) (A)
                 (A) (A) (A) (A) (A) (A) (A) (A) (A) (A) (A) (A)
                 (A) (A) (A) (A) (A) (A) (A) (A) (A) (A) (A) (A)
                 (A) (A) (A) (A) (A) (A) (A) (A) (A) (A) (A) (A)
                 (A) (A) (A) (A) (A) (A) (A) (A) (A) (A) (A) (A)
                 (A) (A) (A) (A) (A) (A) (A) (A) (A) (A) (A) (A)
                 (A) (A) (A) (A) (A) (A) (A) (A) (A) (A) (A) (A)
                 (A) (A) (A) (A) (A) (A) (A) (A) (A) (A) (A) (A)
                 (A) (A) (A) (A) (A) (A) (A) (A) (A) (A) (A) (A)
                 (A) (A) (A) (A) (A) (A) (A) (A) (A) (A) (A) (A)
                 (A) (A) (A) (A) (A) (A) (A) (A) (A) (A) (A) (A)
                 (A) (A) (A) (A) (A) (A) (A) (A) (A) (A) (A) (A)
                 (A) (A) (A) (A) (A) (A) (A) (A) (A) (A) (A) (A)
                 (A) (A) (A) (A) (A) (A) (A) (A) (A) (A) (A) (A)
                 (A) (A) (A) (A) (A) (A) (A) (A) (A) (A) (A) (A)
                 (A) (A) (A) (A) (A) (A) (A) (A) (A) (A) (A) (A)
                 (A) (A) (A) (A) (A) (A) (A) (A) (A) (A) (A) (A)
                 (A) (A) (A) (A) (A) (A) (A) (A) (A) (A) (A) (A)
                 (A) (A) (A) (A) (A) (A) (A) (A) (A) (A) (A) (A)
                 (A) (A) (A) (A) (A) (A) (A) (A) (A) (A) (A) (A)
                 (A) (A) (A) (A) (A) (A) (A) (A) (A) (A) (A) (A)
                 (A) (A) (A) (A) (A) (A) (A) (A) (A) (A) (A) (A)
                 (A) (A) (A) (A) (A) (A) (A) (A) (A) (A) (A) (A)
                 (A) (A) (A) (A) (A) (A) (A) (A) (A) (A) (A) (A)
                 (A) (A) (A) (A) (A) (A) (A) (A) (A) (A) (A) (A)
                 (A) (A) (A) (A) (A) (A) (A) (A) (A) (A) (A) (A)
                 (A) (A) (A) (A) (A) (A) (A) (A) (A) (A) (A) (A)
                 (A) (A) (A) (A) (A) (A) (A) (A) (A) (A) (A) (A)
                 (A) (A) (A) (A) (A) (A) (A) (A) (A) (A) (A) (A)
                 (A) (A) (A) (A) (A) (A) (A) (A) (A) (A) (A) (A)
                 (A) (A) (A) (A) (A) (A) (A) (A) (A) (A) (A) (A)
                 (A) (A) (A) (A) (A) (A) (A) (A) (A) (A) (A) (A)
                 (A) (A) (A) (A) (A) (A) (A) (A) (A) (A) (A) (A)
                 (A) (A) (A) (A) (A) (A) (A) (A) (A) (A) (A) (A)
                 (A) (A) (A) (A) (A) (A) (A) (A) (A) (A) (A) (A)
                 (A) (A) (A) (A) (A) (A) (A) (A) (A) (A) (A) (A)
                 (A) (A) (A) (A) (A) (A) (A) (A) (A) (A) (A) (A)
                 (A) (A) (A) (A) (A) (A) (A) (A) (A) (A) (A) (A)
                 (A) (A) (A) (A) (A) (A) (A) (A) (A) (A) (A) (A)
                 (A) (A) (A) (A) (A) (A) (A) (A) (A) (A) (A) (A)
 The electronic state is 3-A.
 Alpha  occ. eigenvalues --  -77.07347 -77.07089 -19.17085 -19.08602 -19.06364
 Alpha  occ. eigenvalues --  -14.33493 -10.25932 -10.23719 -10.23686 -10.20633
 Alpha  occ. eigenvalues --  -10.20555 -10.20428 -10.20313 -10.20101 -10.19450
 Alpha  occ. eigenvalues --  -10.19446 -10.19154 -10.19120 -10.17508 -10.17344
 Alpha  occ. eigenvalues --  -10.17289 -10.17265 -10.17239 -10.17144 -10.17130
 Alpha  occ. eigenvalues --  -10.17088 -10.16983 -10.16980 -10.16825 -10.16346
 Alpha  occ. eigenvalues --   -6.56566  -6.56312  -4.73172  -4.73117  -4.72920
 Alpha  occ. eigenvalues --   -4.72883  -4.72864  -4.72627  -3.04437  -1.89058
 Alpha  occ. eigenvalues --   -1.88966  -1.87304  -1.07379  -0.95122  -0.90016
 Alpha  occ. eigenvalues --   -0.87973  -0.82047  -0.81515  -0.79689  -0.79641
 Alpha  occ. eigenvalues --   -0.79381  -0.79132  -0.73340  -0.69745  -0.67852
 Alpha  occ. eigenvalues --   -0.67741  -0.67658  -0.67384  -0.66888  -0.66818
 Alpha  occ. eigenvalues --   -0.66597  -0.66499  -0.63492  -0.62627  -0.59373
 Alpha  occ. eigenvalues --   -0.59152  -0.54166  -0.53845  -0.53605  -0.51357
 Alpha  occ. eigenvalues --   -0.51053  -0.49981  -0.49276  -0.46876  -0.46673
 Alpha  occ. eigenvalues --   -0.45383  -0.45130  -0.44658  -0.44438  -0.44417
 Alpha  occ. eigenvalues --   -0.44073  -0.43765  -0.43598  -0.43053  -0.42875
 Alpha  occ. eigenvalues --   -0.42599  -0.42336  -0.42119  -0.41932  -0.41465
 Alpha  occ. eigenvalues --   -0.41221  -0.40973  -0.40591  -0.39976  -0.39822
 Alpha  occ. eigenvalues --   -0.38944  -0.38713  -0.38464  -0.37603  -0.37296
 Alpha  occ. eigenvalues --   -0.37118  -0.37056  -0.36964  -0.36782  -0.36499
 Alpha  occ. eigenvalues --   -0.36133  -0.35709  -0.35399  -0.35334  -0.34592
 Alpha  occ. eigenvalues --   -0.34271  -0.33941  -0.33553  -0.33220  -0.32850
 Alpha  occ. eigenvalues --   -0.32550  -0.32332  -0.32124  -0.31942  -0.31392
 Alpha  occ. eigenvalues --   -0.30592  -0.30355  -0.29430  -0.29026  -0.28787
 Alpha  occ. eigenvalues --   -0.28627  -0.27621  -0.26743  -0.26273  -0.25073
 Alpha  occ. eigenvalues --   -0.23827  -0.21747  -0.19126  -0.14508
 Alpha virt. eigenvalues --   -0.03695  -0.02178  -0.01147   0.01252   0.02007
 Alpha virt. eigenvalues --    0.04573   0.04966   0.05634   0.06290   0.06480
 Alpha virt. eigenvalues --    0.07467   0.07820   0.08060   0.08383   0.08658
 Alpha virt. eigenvalues --    0.08826   0.09346   0.09801   0.10177   0.10524
 Alpha virt. eigenvalues --    0.10710   0.11067   0.11427   0.11944   0.12392
 Alpha virt. eigenvalues --    0.12447   0.12817   0.13513   0.13667   0.13723
 Alpha virt. eigenvalues --    0.14015   0.14150   0.14174   0.14982   0.15017
 Alpha virt. eigenvalues --    0.15345   0.15556   0.16209   0.16375   0.16692
 Alpha virt. eigenvalues --    0.16930   0.17234   0.17600   0.17788   0.18050
 Alpha virt. eigenvalues --    0.18064   0.18587   0.18852   0.19363   0.20034
 Alpha virt. eigenvalues --    0.20318   0.20380   0.20833   0.20934   0.21267
 Alpha virt. eigenvalues --    0.21366   0.21439   0.21792   0.21907   0.22419
 Alpha virt. eigenvalues --    0.22891   0.23441   0.23662   0.24397   0.24809
 Alpha virt. eigenvalues --    0.24940   0.25492   0.25899   0.26209   0.26326
 Alpha virt. eigenvalues --    0.27017   0.27555   0.28282   0.28915   0.29891
 Alpha virt. eigenvalues --    0.30852   0.31495   0.31661   0.32704   0.34709
 Alpha virt. eigenvalues --    0.35758   0.36242   0.36660   0.38045   0.39569
 Alpha virt. eigenvalues --    0.39791   0.40170   0.40737   0.40978   0.41205
 Alpha virt. eigenvalues --    0.41529   0.41992   0.42594   0.43132   0.43145
 Alpha virt. eigenvalues --    0.43724   0.44259   0.45065   0.45730   0.45834
 Alpha virt. eigenvalues --    0.46444   0.46872   0.48349   0.48994   0.49130
 Alpha virt. eigenvalues --    0.49681   0.50453   0.52101   0.52527   0.52743
 Alpha virt. eigenvalues --    0.53236   0.53660   0.53820   0.54204   0.54678
 Alpha virt. eigenvalues --    0.54769   0.55839   0.56119   0.56744   0.57762
 Alpha virt. eigenvalues --    0.58304   0.58441   0.58659   0.59267   0.59665
 Alpha virt. eigenvalues --    0.59959   0.60520   0.60749   0.61361   0.61511
 Alpha virt. eigenvalues --    0.62094   0.62309   0.62535   0.63247   0.63344
 Alpha virt. eigenvalues --    0.63631   0.63856   0.64571   0.64754   0.64990
 Alpha virt. eigenvalues --    0.65450   0.65594   0.65822   0.66055   0.66110
 Alpha virt. eigenvalues --    0.66337   0.66526   0.66840   0.67302   0.67489
 Alpha virt. eigenvalues --    0.67603   0.67956   0.68296   0.68540   0.68722
 Alpha virt. eigenvalues --    0.68844   0.69021   0.69258   0.69531   0.69724
 Alpha virt. eigenvalues --    0.70133   0.70627   0.70749   0.71023   0.71261
 Alpha virt. eigenvalues --    0.71443   0.71580   0.71633   0.72322   0.72750
 Alpha virt. eigenvalues --    0.72798   0.73010   0.73353   0.73583   0.73623
 Alpha virt. eigenvalues --    0.73810   0.74030   0.74703   0.75023   0.75399
 Alpha virt. eigenvalues --    0.75489   0.75808   0.76238   0.76489   0.76791
 Alpha virt. eigenvalues --    0.77063   0.77720   0.78201   0.78379   0.78749
 Alpha virt. eigenvalues --    0.78887   0.79509   0.79947   0.80640   0.80733
 Alpha virt. eigenvalues --    0.81066   0.81439   0.81901   0.82469   0.82594
 Alpha virt. eigenvalues --    0.83362   0.83494   0.83871   0.84467   0.85216
 Alpha virt. eigenvalues --    0.85875   0.86433   0.87071   0.87561   0.88146
 Alpha virt. eigenvalues --    0.88807   0.89639   0.89754   0.90439   0.91396
 Alpha virt. eigenvalues --    0.92189   0.92340   0.93705   0.94768   0.95295
 Alpha virt. eigenvalues --    0.96230   0.96373   0.97898   0.99581   1.00476
 Alpha virt. eigenvalues --    1.02103   1.02458   1.03133   1.03291   1.03912
 Alpha virt. eigenvalues --    1.04856   1.05569   1.06569   1.06688   1.07728
 Alpha virt. eigenvalues --    1.08327   1.08693   1.09776   1.10782   1.11799
 Alpha virt. eigenvalues --    1.12524   1.12930   1.14077   1.15080   1.16189
 Alpha virt. eigenvalues --    1.16695   1.17335   1.18097   1.18829   1.19281
 Alpha virt. eigenvalues --    1.20153   1.20659   1.21271   1.21447   1.22193
 Alpha virt. eigenvalues --    1.22951   1.23787   1.24320   1.24902   1.24995
 Alpha virt. eigenvalues --    1.25958   1.26825   1.27410   1.28179   1.28609
 Alpha virt. eigenvalues --    1.29692   1.30478   1.30662   1.31480   1.31731
 Alpha virt. eigenvalues --    1.33175   1.33950   1.35182   1.35923   1.37648
 Alpha virt. eigenvalues --    1.37982   1.39328   1.42366   1.44090   1.44597
 Alpha virt. eigenvalues --    1.47940   1.48492   1.49591   1.49985   1.50396
 Alpha virt. eigenvalues --    1.51732   1.52127   1.53246   1.53509   1.53830
 Alpha virt. eigenvalues --    1.54270   1.54621   1.54911   1.55630   1.56397
 Alpha virt. eigenvalues --    1.56598   1.56797   1.56980   1.57930   1.58140
 Alpha virt. eigenvalues --    1.58593   1.58768   1.59051   1.59227   1.59569
 Alpha virt. eigenvalues --    1.59931   1.60416   1.61281   1.62017   1.62190
 Alpha virt. eigenvalues --    1.62863   1.63676   1.63963   1.64664   1.65175
 Alpha virt. eigenvalues --    1.65693   1.65972   1.66486   1.66727   1.67317
 Alpha virt. eigenvalues --    1.68067   1.68973   1.69607   1.70667   1.71132
 Alpha virt. eigenvalues --    1.72418   1.73154   1.74354   1.74874   1.76130
 Alpha virt. eigenvalues --    1.76596   1.77000   1.77251   1.77584   1.77767
 Alpha virt. eigenvalues --    1.78606   1.79002   1.79192   1.79435   1.79539
 Alpha virt. eigenvalues --    1.79810   1.80306   1.80608   1.81239   1.81603
 Alpha virt. eigenvalues --    1.81774   1.82622   1.82870   1.83630   1.83833
 Alpha virt. eigenvalues --    1.84236   1.84624   1.84725   1.85036   1.85354
 Alpha virt. eigenvalues --    1.85899   1.86255   1.86455   1.87050   1.87409
 Alpha virt. eigenvalues --    1.87543   1.88055   1.88722   1.89345   1.89588
 Alpha virt. eigenvalues --    1.89693   1.90758   1.90904   1.91534   1.91924
 Alpha virt. eigenvalues --    1.92685   1.92950   1.93149   1.93632   1.93766
 Alpha virt. eigenvalues --    1.94157   1.94298   1.94487   1.94919   1.95326
 Alpha virt. eigenvalues --    1.95623   1.95943   1.96229   1.96584   1.97147
 Alpha virt. eigenvalues --    1.98044   1.98365   1.98956   1.99217   1.99892
 Alpha virt. eigenvalues --    2.00185   2.00805   2.01064   2.01275   2.01866
 Alpha virt. eigenvalues --    2.02561   2.02655   2.03857   2.04037   2.04283
 Alpha virt. eigenvalues --    2.05050   2.06138   2.07976   2.08451   2.09979
 Alpha virt. eigenvalues --    2.11116   2.12383   2.15262   2.15937   2.16265
 Alpha virt. eigenvalues --    2.16743   2.17075   2.17722   2.18048   2.18494
 Alpha virt. eigenvalues --    2.18703   2.19049   2.19332   2.19830   2.20241
 Alpha virt. eigenvalues --    2.20764   2.21100   2.21646   2.22426   2.22782
 Alpha virt. eigenvalues --    2.22919   2.23448   2.24306   2.24396   2.25026
 Alpha virt. eigenvalues --    2.25293   2.27457   2.28425   2.28889   2.30102
 Alpha virt. eigenvalues --    2.32329   2.35356   2.38220   2.38679   2.39088
 Alpha virt. eigenvalues --    2.39414   2.40226   2.40772   2.41154   2.41434
 Alpha virt. eigenvalues --    2.42264   2.42310   2.42879   2.43088   2.43426
 Alpha virt. eigenvalues --    2.44538   2.45072   2.46067   2.47211   2.47363
 Alpha virt. eigenvalues --    2.47813   2.49092   2.50422   2.51528   2.52408
 Alpha virt. eigenvalues --    2.55405   2.55670   2.56108   2.56393   2.56548
 Alpha virt. eigenvalues --    2.56648   2.56833   2.57641   2.58541   2.61436
 Alpha virt. eigenvalues --    2.62308   2.62605   2.62907   2.63129   2.63612
 Alpha virt. eigenvalues --    2.63842   2.64001   2.64152   2.64442   2.65113
 Alpha virt. eigenvalues --    2.65266   2.65459   2.66123   2.66194   2.67859
 Alpha virt. eigenvalues --    2.69436   2.72458   2.72658   2.72968   2.73265
 Alpha virt. eigenvalues --    2.73928   2.74386   2.75044   2.77283   2.80735
 Alpha virt. eigenvalues --    2.81820   2.84457   2.86434   2.87212   2.87594
 Alpha virt. eigenvalues --    2.87896   2.88567   2.89029   2.89294   2.89480
 Alpha virt. eigenvalues --    2.89921   2.90968   2.91339   2.92990   2.93082
 Alpha virt. eigenvalues --    2.93688   2.94149   2.94538   2.95499   2.95845
 Alpha virt. eigenvalues --    2.95959   2.96416   2.96869   2.97074   2.97352
 Alpha virt. eigenvalues --    2.98209   2.98675   2.99240   2.99620   3.00143
 Alpha virt. eigenvalues --    3.01710   3.02349   3.02489   3.04263   3.05162
 Alpha virt. eigenvalues --    3.06165   3.07094   3.07765   3.08445   3.09069
 Alpha virt. eigenvalues --    3.09577   3.09964   3.10078   3.11396   3.12215
 Alpha virt. eigenvalues --    3.12727   3.14671   3.19649   3.20632   3.36759
 Alpha virt. eigenvalues --    3.62275   3.73817   3.79593   3.88297  45.28073
  Beta  occ. eigenvalues --  -77.07287 -77.07030 -19.17203 -19.07960 -19.06367
  Beta  occ. eigenvalues --  -14.33253 -10.26088 -10.23729 -10.23696 -10.20639
  Beta  occ. eigenvalues --  -10.20530 -10.20413 -10.20292 -10.20086 -10.19440
  Beta  occ. eigenvalues --  -10.19435 -10.19150 -10.19114 -10.17509 -10.17344
  Beta  occ. eigenvalues --  -10.17282 -10.17265 -10.17230 -10.17135 -10.17121
  Beta  occ. eigenvalues --  -10.17089 -10.16983 -10.16978 -10.16827 -10.16346
  Beta  occ. eigenvalues --   -6.56493  -6.56241  -4.73120  -4.73070  -4.72871
  Beta  occ. eigenvalues --   -4.72818  -4.72742  -4.72486  -2.98684  -1.84894
  Beta  occ. eigenvalues --   -1.80814  -1.80534  -1.07596  -0.94924  -0.89017
  Beta  occ. eigenvalues --   -0.87528  -0.81982  -0.81448  -0.79641  -0.79599
  Beta  occ. eigenvalues --   -0.79353  -0.79106  -0.73272  -0.69682  -0.67834
  Beta  occ. eigenvalues --   -0.67732  -0.67637  -0.67380  -0.66884  -0.66805
  Beta  occ. eigenvalues --   -0.66582  -0.66498  -0.63333  -0.62496  -0.59251
  Beta  occ. eigenvalues --   -0.59030  -0.54131  -0.53873  -0.53767  -0.51286
  Beta  occ. eigenvalues --   -0.50977  -0.49881  -0.49229  -0.46830  -0.46654
  Beta  occ. eigenvalues --   -0.45305  -0.45087  -0.44609  -0.44406  -0.44278
  Beta  occ. eigenvalues --   -0.44058  -0.43727  -0.43548  -0.43063  -0.42851
  Beta  occ. eigenvalues --   -0.42530  -0.42356  -0.42075  -0.41922  -0.41420
  Beta  occ. eigenvalues --   -0.41203  -0.40971  -0.40113  -0.39837  -0.39678
  Beta  occ. eigenvalues --   -0.38918  -0.38681  -0.38440  -0.37590  -0.37280
  Beta  occ. eigenvalues --   -0.37098  -0.37035  -0.36961  -0.36760  -0.36468
  Beta  occ. eigenvalues --   -0.36122  -0.35693  -0.35392  -0.35328  -0.34490
  Beta  occ. eigenvalues --   -0.34218  -0.33776  -0.33425  -0.32831  -0.32528
  Beta  occ. eigenvalues --   -0.32140  -0.32081  -0.31875  -0.31171  -0.30922
  Beta  occ. eigenvalues --   -0.29331  -0.29125  -0.28888  -0.28584  -0.27399
  Beta  occ. eigenvalues --   -0.26794  -0.26306  -0.25294  -0.25085  -0.25007
  Beta  occ. eigenvalues --   -0.21753  -0.20077
  Beta virt. eigenvalues --   -0.07447  -0.03539  -0.03228  -0.02173   0.01185
  Beta virt. eigenvalues --    0.01851   0.02341   0.04635   0.05364   0.06134
  Beta virt. eigenvalues --    0.06314   0.07011   0.07532   0.07960   0.08215
  Beta virt. eigenvalues --    0.08447   0.08787   0.08908   0.09515   0.09850
  Beta virt. eigenvalues --    0.10215   0.10610   0.10755   0.11144   0.11462
  Beta virt. eigenvalues --    0.11964   0.12420   0.12526   0.12931   0.13596
  Beta virt. eigenvalues --    0.13754   0.13794   0.14075   0.14188   0.14239
  Beta virt. eigenvalues --    0.15006   0.15071   0.15378   0.15603   0.16281
  Beta virt. eigenvalues --    0.16440   0.16742   0.17025   0.17338   0.17634
  Beta virt. eigenvalues --    0.17821   0.18076   0.18165   0.18639   0.18866
  Beta virt. eigenvalues --    0.19441   0.20087   0.20371   0.20467   0.20899
  Beta virt. eigenvalues --    0.21018   0.21311   0.21416   0.21527   0.21834
  Beta virt. eigenvalues --    0.21957   0.22536   0.22952   0.23490   0.23842
  Beta virt. eigenvalues --    0.24436   0.24854   0.25027   0.25562   0.25986
  Beta virt. eigenvalues --    0.26309   0.26503   0.27185   0.27623   0.28472
  Beta virt. eigenvalues --    0.29126   0.30211   0.31009   0.31637   0.31779
  Beta virt. eigenvalues --    0.32893   0.34842   0.35989   0.36398   0.37049
  Beta virt. eigenvalues --    0.38308   0.39644   0.39874   0.40295   0.40790
  Beta virt. eigenvalues --    0.41084   0.41350   0.41745   0.42180   0.42839
  Beta virt. eigenvalues --    0.43251   0.43359   0.43868   0.44360   0.45142
  Beta virt. eigenvalues --    0.45778   0.45967   0.46509   0.47045   0.48568
  Beta virt. eigenvalues --    0.49142   0.49297   0.50003   0.50671   0.52244
  Beta virt. eigenvalues --    0.52726   0.52910   0.53419   0.53712   0.54011
  Beta virt. eigenvalues --    0.54348   0.54808   0.54958   0.55937   0.56187
  Beta virt. eigenvalues --    0.56830   0.57843   0.58341   0.58573   0.58849
  Beta virt. eigenvalues --    0.59376   0.59741   0.60027   0.60688   0.60799
  Beta virt. eigenvalues --    0.61432   0.61539   0.62263   0.62403   0.62777
  Beta virt. eigenvalues --    0.63337   0.63371   0.63737   0.63920   0.64620
  Beta virt. eigenvalues --    0.64808   0.65030   0.65485   0.65657   0.65872
  Beta virt. eigenvalues --    0.66091   0.66168   0.66395   0.66598   0.66882
  Beta virt. eigenvalues --    0.67323   0.67567   0.67710   0.68001   0.68356
  Beta virt. eigenvalues --    0.68578   0.68770   0.68901   0.69052   0.69310
  Beta virt. eigenvalues --    0.69574   0.69832   0.70219   0.70670   0.70784
  Beta virt. eigenvalues --    0.71069   0.71348   0.71516   0.71634   0.71723
  Beta virt. eigenvalues --    0.72377   0.72811   0.72874   0.73080   0.73417
  Beta virt. eigenvalues --    0.73614   0.73656   0.73865   0.74098   0.74804
  Beta virt. eigenvalues --    0.75114   0.75515   0.75572   0.75882   0.76341
  Beta virt. eigenvalues --    0.76567   0.76903   0.77181   0.77790   0.78244
  Beta virt. eigenvalues --    0.78471   0.78841   0.78942   0.79590   0.80049
  Beta virt. eigenvalues --    0.80709   0.80830   0.81161   0.81547   0.81945
  Beta virt. eigenvalues --    0.82567   0.82694   0.83424   0.83637   0.83981
  Beta virt. eigenvalues --    0.84523   0.85268   0.85961   0.86551   0.87230
  Beta virt. eigenvalues --    0.87678   0.88292   0.88876   0.89757   0.89917
  Beta virt. eigenvalues --    0.90605   0.91467   0.92303   0.92543   0.93831
  Beta virt. eigenvalues --    0.94941   0.95383   0.96440   0.96637   0.98065
  Beta virt. eigenvalues --    0.99764   1.00804   1.02273   1.02668   1.03272
  Beta virt. eigenvalues --    1.03467   1.04144   1.05050   1.05660   1.06669
  Beta virt. eigenvalues --    1.06968   1.07790   1.08490   1.08901   1.10018
  Beta virt. eigenvalues --    1.10889   1.11901   1.12662   1.13011   1.14260
  Beta virt. eigenvalues --    1.15267   1.16283   1.16735   1.17355   1.18271
  Beta virt. eigenvalues --    1.18918   1.19421   1.20321   1.20847   1.21335
  Beta virt. eigenvalues --    1.21654   1.22302   1.23140   1.24029   1.24384
  Beta virt. eigenvalues --    1.25034   1.25042   1.26047   1.26945   1.27462
  Beta virt. eigenvalues --    1.28255   1.28759   1.29785   1.30656   1.30798
  Beta virt. eigenvalues --    1.31557   1.31867   1.33370   1.34219   1.35899
  Beta virt. eigenvalues --    1.36151   1.37746   1.38105   1.39466   1.42508
  Beta virt. eigenvalues --    1.44166   1.44751   1.48065   1.48580   1.49647
  Beta virt. eigenvalues --    1.50082   1.50480   1.51847   1.52235   1.53382
  Beta virt. eigenvalues --    1.53671   1.53876   1.54306   1.54668   1.54967
  Beta virt. eigenvalues --    1.55688   1.56440   1.56676   1.56830   1.57057
  Beta virt. eigenvalues --    1.57994   1.58189   1.58639   1.58837   1.59085
  Beta virt. eigenvalues --    1.59265   1.59594   1.59995   1.60493   1.61332
  Beta virt. eigenvalues --    1.62209   1.62340   1.62940   1.63735   1.64060
  Beta virt. eigenvalues --    1.64763   1.65324   1.65849   1.66080   1.66570
  Beta virt. eigenvalues --    1.66881   1.67604   1.68312   1.69455   1.69682
  Beta virt. eigenvalues --    1.71005   1.71230   1.72589   1.73467   1.74316
  Beta virt. eigenvalues --    1.74910   1.76350   1.76656   1.77072   1.77335
  Beta virt. eigenvalues --    1.77614   1.77822   1.78668   1.79137   1.79225
  Beta virt. eigenvalues --    1.79569   1.79732   1.79921   1.80415   1.80784
  Beta virt. eigenvalues --    1.81354   1.81697   1.81830   1.82661   1.82903
  Beta virt. eigenvalues --    1.83796   1.83956   1.84491   1.84729   1.84804
  Beta virt. eigenvalues --    1.85138   1.85544   1.85937   1.86378   1.86511
  Beta virt. eigenvalues --    1.87143   1.87577   1.87662   1.88296   1.89392
  Beta virt. eigenvalues --    1.89685   1.90895   1.91033   1.91578   1.92453
  Beta virt. eigenvalues --    1.92599   1.92729   1.93176   1.93338   1.93896
  Beta virt. eigenvalues --    1.94077   1.94320   1.94423   1.94556   1.95131
  Beta virt. eigenvalues --    1.95407   1.95586   1.95974   1.96352   1.96838
  Beta virt. eigenvalues --    1.97227   1.97415   1.98286   1.98698   1.99303
  Beta virt. eigenvalues --    1.99460   2.00022   2.00554   2.00855   2.01198
  Beta virt. eigenvalues --    2.01505   2.01986   2.02634   2.02742   2.04036
  Beta virt. eigenvalues --    2.04189   2.04573   2.07529   2.08046   2.09127
  Beta virt. eigenvalues --    2.09951   2.10674   2.11739   2.12993   2.15476
  Beta virt. eigenvalues --    2.15984   2.16309   2.16789   2.17143   2.17767
  Beta virt. eigenvalues --    2.18148   2.18527   2.18754   2.19133   2.19404
  Beta virt. eigenvalues --    2.19922   2.20319   2.20824   2.21179   2.21735
  Beta virt. eigenvalues --    2.22495   2.22892   2.22989   2.23484   2.24382
  Beta virt. eigenvalues --    2.24488   2.25134   2.25395   2.27534   2.28466
  Beta virt. eigenvalues --    2.29379   2.30160   2.33721   2.35426   2.38278
  Beta virt. eigenvalues --    2.38749   2.39109   2.39443   2.40296   2.40848
  Beta virt. eigenvalues --    2.41194   2.41465   2.42296   2.42345   2.42950
  Beta virt. eigenvalues --    2.43102   2.43486   2.44578   2.45226   2.46088
  Beta virt. eigenvalues --    2.47269   2.47417   2.47849   2.49108   2.50470
  Beta virt. eigenvalues --    2.51567   2.52428   2.55427   2.55688   2.56141
  Beta virt. eigenvalues --    2.56420   2.56572   2.56678   2.56860   2.57663
  Beta virt. eigenvalues --    2.58574   2.61455   2.62292   2.62580   2.62918
  Beta virt. eigenvalues --    2.63149   2.63628   2.63859   2.64026   2.64174
  Beta virt. eigenvalues --    2.64457   2.64974   2.65115   2.65480   2.66055
  Beta virt. eigenvalues --    2.66331   2.67753   2.69487   2.72649   2.72798
  Beta virt. eigenvalues --    2.73021   2.73348   2.74012   2.74455   2.76029
  Beta virt. eigenvalues --    2.77709   2.80862   2.81952   2.84497   2.86471
  Beta virt. eigenvalues --    2.87232   2.87617   2.87912   2.88592   2.89057
  Beta virt. eigenvalues --    2.89325   2.89497   2.89938   2.90984   2.91376
  Beta virt. eigenvalues --    2.93008   2.93131   2.93795   2.94437   2.94601
  Beta virt. eigenvalues --    2.95673   2.95956   2.95999   2.96487   2.96946
  Beta virt. eigenvalues --    2.97086   2.97437   2.98298   2.98935   2.99402
  Beta virt. eigenvalues --    2.99770   3.00653   3.02217   3.02501   3.02922
  Beta virt. eigenvalues --    3.04334   3.05230   3.06206   3.07116   3.07853
  Beta virt. eigenvalues --    3.08549   3.09090   3.09796   3.10090   3.10240
  Beta virt. eigenvalues --    3.11401   3.12228   3.12744   3.14788   3.19444
  Beta virt. eigenvalues --    3.20450   3.37030   3.62379   3.73749   3.80180
  Beta virt. eigenvalues --    3.88334  45.15830
          Condensed to atoms (all electrons):
          Atomic-Atomic Spin Densities.
 Mulliken charges and spin densities:
               1          2
     1  P    0.264650   0.122035
     2  N   -0.117114   0.056224
     3  C    0.018708   0.005479
     4  H    0.056847   0.001599
     5  H    0.088579  -0.000227
     6  O   -0.537496  -0.005500
     7  P    0.266621   0.124946
     8  C   -0.047614  -0.005186
     9  C   -0.003898   0.004404
    10  H    0.007986   0.001377
    11  C    0.064805  -0.004499
    12  H    0.021736   0.000079
    13  C   -0.007353   0.004411
    14  H    0.007557   0.001386
    15  C   -0.040058  -0.005184
    16  C    0.014072   0.006224
    17  H    0.059079   0.001742
    18  H    0.087149  -0.000220
    19  Ru  -0.024679   1.568846
    20  H    0.169107   0.000804
    21  C   -0.377866   0.004674
    22  C   -0.388849   0.006455
    23  C   -0.386551   0.008299
    24  C   -0.389762   0.004239
    25  C    0.073773  -0.000619
    26  H    0.022857   0.000051
    27  H    0.037888   0.002037
    28  H    0.014933  -0.000164
    29  C    0.082261  -0.000097
    30  H    0.011741  -0.000117
    31  H    0.029473   0.002358
    32  H    0.009678   0.000016
    33  C    0.078124   0.001108
    34  H    0.009448   0.002289
    35  H    0.035026  -0.000035
    36  H    0.024418   0.000027
    37  C    0.081161   0.001849
    38  H    0.010686  -0.000081
    39  H    0.012791   0.002641
    40  H    0.023399  -0.000111
    41  C    0.072368  -0.000194
    42  H    0.013544   0.000082
    43  H    0.035070   0.000017
    44  H    0.035142   0.000933
    45  C    0.057862   0.000984
    46  H    0.027520  -0.001245
    47  H    0.035081   0.000112
    48  H    0.017397  -0.000157
    49  C    0.073265   0.000184
    50  H    0.004302  -0.000177
    51  H    0.012612   0.000837
    52  H    0.003061   0.000051
    53  C    0.079580   0.001505
    54  H    0.006839   0.002297
    55  H    0.031710  -0.000052
    56  H    0.024318  -0.000032
    57  C    0.071477  -0.000701
    58  H    0.021290   0.000042
    59  H    0.028030   0.000724
    60  H    0.009508  -0.000073
    61  C    0.078086   0.000257
    62  H    0.040068   0.001280
    63  H    0.020329   0.000109
    64  H    0.011214  -0.000357
    65  C    0.081050   0.001682
    66  H    0.008741  -0.000031
    67  H    0.011125   0.002428
    68  H    0.021334  -0.000096
    69  C    0.069260  -0.000277
    70  H    0.011581  -0.000005
    71  H    0.036039   0.000027
    72  H    0.036139   0.001093
    73  O   -0.517461   0.206318
    74  C    0.048946  -0.092397
    75  H    0.181530  -0.002343
    76  O   -0.161269  -0.036384
 Sum of Mulliken charges =  -0.00000   2.00000
 Mulliken charges and spin densities with hydrogens summed into heavy atoms:
               1          2
     1  P    0.264650   0.122035
     2  N   -0.117114   0.056224
     3  C    0.164134   0.006852
     6  O   -0.368390  -0.004696
     7  P    0.266621   0.124946
     8  C   -0.047614  -0.005186
     9  C    0.004088   0.005781
    11  C    0.086542  -0.004420
    13  C    0.000205   0.005797
    15  C   -0.040058  -0.005184
    16  C    0.160300   0.007746
    19  Ru  -0.024679   1.568846
    21  C   -0.377866   0.004674
    22  C   -0.388849   0.006455
    23  C   -0.386551   0.008299
    24  C   -0.389762   0.004239
    25  C    0.149450   0.001305
    29  C    0.133152   0.002159
    33  C    0.147017   0.003390
    37  C    0.128037   0.004297
    41  C    0.156124   0.000838
    45  C    0.137861  -0.000306
    49  C    0.093241   0.000895
    53  C    0.142447   0.003718
    57  C    0.130305  -0.000008
    61  C    0.149696   0.001289
    65  C    0.122250   0.003982
    69  C    0.153019   0.000837
    73  O   -0.335932   0.203975
    74  C    0.048946  -0.092397
    76  O   -0.161269  -0.036384
 Electronic spatial extent (au):  <R**2>=          13756.6733
 Charge=             -0.0000 electrons
 Dipole moment (field-independent basis, Debye):
    X=              2.1928    Y=             12.6717    Z=             -0.0162  Tot=             12.8601
 Quadrupole moment (field-independent basis, Debye-Ang):
   XX=           -176.3181   YY=           -224.6189   ZZ=           -233.1102
   XY=             -2.1697   XZ=            -11.9253   YZ=              4.7227
 Traceless Quadrupole moment (field-independent basis, Debye-Ang):
   XX=             35.0310   YY=            -13.2698   ZZ=            -21.7612
   XY=             -2.1697   XZ=            -11.9253   YZ=              4.7227
 Octapole moment (field-independent basis, Debye-Ang**2):
  XXX=             15.2425  YYY=            112.5222  ZZZ=            -18.4464  XYY=              5.3882
  XXY=            -15.6212  XXZ=             -1.9846  XZZ=             14.7727  YZZ=             -7.8911
  YYZ=            -10.8009  XYZ=              4.9804
 Hexadecapole moment (field-independent basis, Debye-Ang**3):
 XXXX=         -10549.7016 YYYY=          -4231.0012 ZZZZ=          -3441.0947 XXXY=            -10.4062
 XXXZ=            -61.1752 YYYX=              3.1491 YYYZ=             54.4626 ZZZX=            -48.1395
 ZZZY=             43.3437 XXYY=          -2485.9430 XXZZ=          -2308.5592 YYZZ=          -1305.0049
 XXYZ=              5.1615 YYXZ=            -77.5620 ZZXY=            -18.8886
 N-N= 4.462262272822D+03 E-N=-1.357944906817D+04  KE= 1.921514751255D+03
                          Isotropic Fermi Contact Couplings
        Atom                 a.u.       MegaHertz       Gauss      10(-4) cm-1
     1  P(31)              0.17546     158.88369      56.69365      52.99789
     2  N(14)              0.15719      25.39454       9.06140       8.47071
     3  C(13)             -0.00398      -2.23769      -0.79846      -0.74641
     4  H(1)               0.00069       1.53740       0.54858       0.51282
     5  H(1)              -0.00006      -0.13369      -0.04770      -0.04459
     6  O(17)              0.00141      -0.42789      -0.15268      -0.14273
     7  P(31)              0.16414     148.63589      53.03698      49.57960
     8  C(13)             -0.00547      -3.07339      -1.09666      -1.02517
     9  C(13)              0.00634       3.56262       1.27123       1.18836
    10  H(1)               0.00017       0.38789       0.13841       0.12939
    11  C(13)             -0.00091      -0.51243      -0.18285      -0.17093
    12  H(1)               0.00002       0.05180       0.01848       0.01728
    13  C(13)              0.00627       3.52536       1.25794       1.17593
    14  H(1)               0.00019       0.41486       0.14803       0.13838
    15  C(13)             -0.00541      -3.03821      -1.08411      -1.01344
    16  C(13)             -0.00325      -1.82467      -0.65109      -0.60864
    17  H(1)               0.00069       1.54149       0.55004       0.51419
    18  H(1)              -0.00016      -0.34646      -0.12363      -0.11557
    19  Ru(99)            -0.00002       0.00171       0.00061       0.00057
    20  H(1)               0.00052       1.16604       0.41607       0.38895
    21  C(13)              0.00638       3.58830       1.28039       1.19693
    22  C(13)              0.00807       4.53748       1.61909       1.51354
    23  C(13)              0.00994       5.58858       1.99414       1.86415
    24  C(13)              0.00621       3.49103       1.24569       1.16448
    25  C(13)             -0.00039      -0.21964      -0.07837      -0.07327
    26  H(1)              -0.00000      -0.00995      -0.00355      -0.00332
    27  H(1)               0.00001       0.02751       0.00982       0.00918
    28  H(1)              -0.00005      -0.10568      -0.03771      -0.03525
    29  C(13)              0.00102       0.57602       0.20554       0.19214
    30  H(1)              -0.00003      -0.05826      -0.02079      -0.01943
    31  H(1)              -0.00001      -0.02766      -0.00987      -0.00923
    32  H(1)              -0.00000      -0.00883      -0.00315      -0.00294
    33  C(13)              0.00401       2.25134       0.80333       0.75097
    34  H(1)               0.00071       1.57931       0.56354       0.52680
    35  H(1)               0.00002       0.04404       0.01572       0.01469
    36  H(1)               0.00006       0.14011       0.04999       0.04673
    37  C(13)              0.00485       2.72872       0.97368       0.91020
    38  H(1)               0.00002       0.03968       0.01416       0.01323
    39  H(1)               0.00082       1.83924       0.65628       0.61350
    40  H(1)               0.00001       0.01996       0.00712       0.00666
    41  C(13)             -0.00033      -0.18684      -0.06667      -0.06232
    42  H(1)               0.00002       0.04020       0.01434       0.01341
    43  H(1)              -0.00000      -0.00660      -0.00236      -0.00220
    44  H(1)              -0.00002      -0.03496      -0.01248      -0.01166
    45  C(13)             -0.00047      -0.26208      -0.09352      -0.08742
    46  H(1)               0.00002       0.05299       0.01891       0.01768
    47  H(1)               0.00001       0.01975       0.00705       0.00659
    48  H(1)              -0.00005      -0.10084      -0.03598      -0.03364
    49  C(13)              0.00048       0.26972       0.09624       0.08997
    50  H(1)              -0.00004      -0.09635      -0.03438      -0.03214
    51  H(1)              -0.00000      -0.00600      -0.00214      -0.00200
    52  H(1)               0.00000       0.00193       0.00069       0.00065
    53  C(13)              0.00479       2.69276       0.96084       0.89821
    54  H(1)               0.00068       1.51241       0.53966       0.50448
    55  H(1)               0.00000       0.00838       0.00299       0.00280
    56  H(1)               0.00004       0.09030       0.03222       0.03012
    57  C(13)             -0.00065      -0.36321      -0.12960      -0.12116
    58  H(1)              -0.00001      -0.02681      -0.00957      -0.00894
    59  H(1)               0.00004       0.08690       0.03101       0.02899
    60  H(1)              -0.00001      -0.02835      -0.01011      -0.00945
    61  C(13)              0.00028       0.15618       0.05573       0.05210
    62  H(1)              -0.00002      -0.04036      -0.01440      -0.01346
    63  H(1)              -0.00001      -0.02297      -0.00820      -0.00766
    64  H(1)              -0.00012      -0.26589      -0.09488      -0.08869
    65  C(13)              0.00456       2.56353       0.91473       0.85510
    66  H(1)               0.00003       0.06776       0.02418       0.02260
    67  H(1)               0.00078       1.73790       0.62013       0.57970
    68  H(1)               0.00001       0.01953       0.00697       0.00652
    69  C(13)             -0.00027      -0.15241      -0.05438      -0.05084
    70  H(1)              -0.00000      -0.00038      -0.00014      -0.00013
    71  H(1)               0.00000       0.00421       0.00150       0.00141
    72  H(1)              -0.00002      -0.05350      -0.01909      -0.01784
    73  O(17)              0.16356     -49.57584     -17.68989     -16.53672
    74  C(13)             -0.05133     -28.85209     -10.29514      -9.62402
    75  H(1)              -0.00284      -6.34610      -2.26445      -2.11683
    76  O(17)             -0.01678       5.08450       1.81427       1.69601
 --------------------------------------------------------
       Center         ----  Spin Dipole Couplings  ----
                      3XX-RR        3YY-RR        3ZZ-RR
 --------------------------------------------------------
     1   Atom        0.122128     -0.008251     -0.113877
     2   Atom       -0.094925      0.176251     -0.081326
     3   Atom       -0.000476      0.011572     -0.011096
     4   Atom        0.001702      0.001854     -0.003557
     5   Atom       -0.000919      0.000151      0.000768
     6   Atom        0.008209      0.019165     -0.027374
     7   Atom        0.120620     -0.004269     -0.116351
     8   Atom        0.003681      0.010103     -0.013784
     9   Atom       -0.003841      0.006505     -0.002664
    10   Atom       -0.000903      0.002712     -0.001808
    11   Atom       -0.001129      0.006245     -0.005115
    12   Atom       -0.000862      0.002030     -0.001168
    13   Atom       -0.003942      0.006438     -0.002496
    14   Atom       -0.000957      0.002621     -0.001664
    15   Atom        0.000581      0.009836     -0.010417
    16   Atom       -0.001037      0.011623     -0.010586
    17   Atom        0.001541      0.001902     -0.003443
    18   Atom       -0.001182     -0.000369      0.001551
    19   Atom        0.272363      0.324835     -0.597199
    20   Atom       -0.011490     -0.010999      0.022489
    21   Atom        0.003701     -0.005583      0.001882
    22   Atom        0.011381     -0.008177     -0.003204
    23   Atom        0.013879     -0.009278     -0.004602
    24   Atom        0.002843     -0.005700      0.002857
    25   Atom       -0.000626     -0.000203      0.000829
    26   Atom       -0.000541      0.002016     -0.001474
    27   Atom       -0.003623     -0.001202      0.004825
    28   Atom       -0.000535     -0.000680      0.001216
    29   Atom        0.002215     -0.003860      0.001644
    30   Atom        0.000195     -0.001993      0.001798
    31   Atom        0.000006     -0.004658      0.004652
    32   Atom        0.002741     -0.002246     -0.000495
    33   Atom        0.005362     -0.001739     -0.003623
    34   Atom        0.001181     -0.000913     -0.000269
    35   Atom        0.003349     -0.001706     -0.001643
    36   Atom        0.001744      0.000083     -0.001827
    37   Atom        0.005063     -0.003312     -0.001752
    38   Atom        0.003383     -0.001494     -0.001889
    39   Atom        0.002124     -0.001268     -0.000856
    40   Atom        0.001622     -0.001369     -0.000253
    41   Atom        0.005642     -0.001860     -0.003782
    42   Atom        0.002979     -0.000934     -0.002045
    43   Atom        0.004226     -0.001887     -0.002338
    44   Atom        0.006315     -0.001087     -0.005229
    45   Atom        0.002736     -0.004787      0.002051
    46   Atom        0.002167     -0.003506      0.001339
    47   Atom        0.000133     -0.004727      0.004594
    48   Atom        0.001341     -0.001954      0.000613
    49   Atom        0.002527     -0.004126      0.001599
    50   Atom        0.000801     -0.002174      0.001373
    51   Atom        0.000759     -0.006082      0.005323
    52   Atom        0.003528     -0.002674     -0.000854
    53   Atom        0.006375     -0.002269     -0.004106
    54   Atom        0.001369     -0.000985     -0.000384
    55   Atom        0.003547     -0.001778     -0.001769
    56   Atom        0.001940     -0.000057     -0.001883
    57   Atom       -0.000302      0.000170      0.000132
    58   Atom       -0.000406      0.002315     -0.001909
    59   Atom       -0.003777      0.000404      0.003373
    60   Atom       -0.000380     -0.000438      0.000818
    61   Atom        0.001285     -0.004056      0.002772
    62   Atom        0.000222     -0.003410      0.003188
    63   Atom       -0.001274     -0.003921      0.005195
    64   Atom        0.000807     -0.001793      0.000986
    65   Atom        0.004739     -0.003227     -0.001511
    66   Atom        0.003303     -0.001521     -0.001782
    67   Atom        0.001906     -0.001212     -0.000695
    68   Atom        0.001390     -0.001312     -0.000078
    69   Atom        0.005599     -0.001875     -0.003724
    70   Atom        0.002808     -0.000922     -0.001886
    71   Atom        0.004366     -0.001908     -0.002458
    72   Atom        0.006510     -0.001052     -0.005457
    73   Atom        0.377612      0.078359     -0.455971
    74   Atom       -0.038755     -0.051087      0.089843
    75   Atom       -0.033859     -0.002707      0.036566
    76   Atom       -0.036575     -0.055464      0.092039
 --------------------------------------------------------
                        XY            XZ            YZ
 --------------------------------------------------------
     1   Atom        0.169766     -0.060984     -0.045069
     2   Atom        0.008131      0.008667      0.017129
     3   Atom        0.001343     -0.002306     -0.005206
     4   Atom        0.004126     -0.001356     -0.002130
     5   Atom        0.004734     -0.004808     -0.006424
     6   Atom        0.013460     -0.010456     -0.012632
     7   Atom       -0.173423     -0.061422      0.044156
     8   Atom        0.008857     -0.006956     -0.003066
     9   Atom        0.001077      0.001101     -0.000558
    10   Atom        0.001821     -0.000393     -0.000805
    11   Atom        0.000190     -0.002478      0.000468
    12   Atom        0.000056     -0.000134      0.000157
    13   Atom       -0.001337      0.000943      0.000247
    14   Atom       -0.001687     -0.000497      0.001122
    15   Atom       -0.007753     -0.009998      0.005695
    16   Atom       -0.000764     -0.002783      0.005790
    17   Atom       -0.004020     -0.001536      0.002317
    18   Atom       -0.003782     -0.004663      0.006318
    19   Atom        0.001497     -0.015276      0.034699
    20   Atom       -0.000931     -0.009821      0.004646
    21   Atom       -0.007637      0.011675     -0.006958
    22   Atom        0.005848     -0.013885     -0.004936
    23   Atom       -0.007178     -0.014693      0.005522
    24   Atom        0.006625      0.011529      0.006665
    25   Atom        0.003219      0.003925      0.004530
    26   Atom        0.003113      0.002198      0.003367
    27   Atom        0.002527      0.004874      0.008123
    28   Atom        0.001353      0.002170      0.002391
    29   Atom        0.000311      0.006034      0.000025
    30   Atom        0.000359      0.003067      0.000314
    31   Atom       -0.000693      0.008306     -0.001983
    32   Atom       -0.000686      0.003594     -0.000607
    33   Atom        0.004532      0.002101      0.000938
    34   Atom        0.001428      0.001566      0.000911
    35   Atom        0.001031      0.001126      0.000460
    36   Atom        0.002831      0.000824      0.000383
    37   Atom        0.003587     -0.005343     -0.002161
    38   Atom        0.001712     -0.001029     -0.000012
    39   Atom        0.000000     -0.002038      0.000129
    40   Atom        0.001448     -0.002774     -0.001450
    41   Atom       -0.002693     -0.000710      0.000087
    42   Atom       -0.001983     -0.001111      0.000390
    43   Atom       -0.001344      0.000825     -0.000259
    44   Atom       -0.005272      0.000973     -0.000510
    45   Atom       -0.001902     -0.006634      0.002261
    46   Atom       -0.005080     -0.009851      0.006099
    47   Atom        0.000381     -0.006490     -0.000100
    48   Atom       -0.001112     -0.003452      0.001369
    49   Atom       -0.000332      0.006159      0.000062
    50   Atom       -0.000516      0.003255     -0.000334
    51   Atom        0.000444      0.009013      0.001272
    52   Atom        0.000994      0.004067      0.000880
    53   Atom       -0.004737      0.001996     -0.000801
    54   Atom       -0.001523      0.001549     -0.000899
    55   Atom       -0.000903      0.001022     -0.000398
    56   Atom       -0.002892      0.000638     -0.000208
    57   Atom       -0.003748      0.003849     -0.004459
    58   Atom       -0.003421      0.001991     -0.003059
    59   Atom       -0.003782      0.004962     -0.008229
    60   Atom       -0.001744      0.002218     -0.002473
    61   Atom        0.001488     -0.006650     -0.002226
    62   Atom        0.003863     -0.009406     -0.006079
    63   Atom       -0.000183     -0.005663      0.000092
    64   Atom        0.000903     -0.003301     -0.001305
    65   Atom       -0.003213     -0.005242      0.001958
    66   Atom       -0.001586     -0.001165      0.000064
    67   Atom        0.000028     -0.002062     -0.000121
    68   Atom       -0.001301     -0.002798      0.001411
    69   Atom        0.002680     -0.001256     -0.000271
    70   Atom        0.001920     -0.001377     -0.000472
    71   Atom        0.001403      0.000526      0.000238
    72   Atom        0.005514      0.000017      0.000180
    73   Atom        0.016527     -0.050874      0.058160
    74   Atom       -0.003194      0.005167     -0.003813
    75   Atom        0.000724      0.004198      0.023007
    76   Atom       -0.002013      0.007125     -0.005900
 --------------------------------------------------------


 ---------------------------------------------------------------------------------
              Anisotropic Spin Dipole Couplings in Principal Axis System
 ---------------------------------------------------------------------------------

       Atom             a.u.   MegaHertz   Gauss  10(-4) cm-1        Axes

              Baa    -0.1306   -28.237   -10.076    -9.419 -0.0802  0.4406  0.8941
     1 P(31)  Bbb    -0.1238   -26.758    -9.548    -8.925 -0.5858  0.7049 -0.3999
              Bcc     0.2544    54.994    19.623    18.344  0.8065  0.5559 -0.2016
 
              Baa    -0.0991    -3.824    -1.364    -1.275  0.8990  0.0007 -0.4380
     2 N(14)  Bbb    -0.0785    -3.028    -1.081    -1.010  0.4369 -0.0742  0.8965
              Bcc     0.1777     6.852     2.445     2.286  0.0319  0.9972  0.0670
 
              Baa    -0.0126    -1.685    -0.601    -0.562  0.1622  0.1995  0.9664
     3 C(13)  Bbb    -0.0004    -0.053    -0.019    -0.018  0.9775 -0.1662 -0.1298
              Bcc     0.0130     1.739     0.620     0.580  0.1347  0.9657 -0.2220
 
              Baa    -0.0043    -2.292    -0.818    -0.765 -0.0212  0.3399  0.9402
     4 H(1)   Bbb    -0.0022    -1.183    -0.422    -0.395  0.7419 -0.6250  0.2427
              Bcc     0.0065     3.475     1.240     1.159  0.6701  0.7027 -0.2389
 
              Baa    -0.0060    -3.191    -1.139    -1.064 -0.0717  0.7474  0.6605
     5 H(1)   Bbb    -0.0048    -2.562    -0.914    -0.854  0.8633 -0.2852  0.4164
              Bcc     0.0108     5.752     2.053     1.919 -0.4995 -0.6001  0.6248
 
              Baa    -0.0319     2.307     0.823     0.770  0.1879  0.1889  0.9638
     6 O(17)  Bbb    -0.0008     0.056     0.020     0.019  0.8144 -0.5786 -0.0454
              Bcc     0.0327    -2.363    -0.843    -0.788  0.5491  0.7935 -0.2626
 
              Baa    -0.1318   -28.484   -10.164    -9.501  0.0799 -0.2274  0.9705
     7 P(31)  Bbb    -0.1260   -27.247    -9.722    -9.089  0.5924  0.7939  0.1372
              Bcc     0.2578    55.730    19.886    18.590  0.8017 -0.5639 -0.1982
 
              Baa    -0.0162    -2.176    -0.776    -0.726  0.3305 -0.0013  0.9438
     8 C(13)  Bbb    -0.0015    -0.198    -0.071    -0.066  0.7333 -0.6292 -0.2577
              Bcc     0.0177     2.374     0.847     0.792  0.5942  0.7772 -0.2070
 
              Baa    -0.0046    -0.622    -0.222    -0.207  0.8543 -0.1081 -0.5084
     9 C(13)  Bbb    -0.0020    -0.269    -0.096    -0.090  0.5106 -0.0082  0.8598
              Bcc     0.0066     0.891     0.318     0.297  0.0971  0.9941 -0.0482
 
              Baa    -0.0020    -1.048    -0.374    -0.350  0.2202  0.0816  0.9720
    10 H(1)   Bbb    -0.0017    -0.881    -0.315    -0.294  0.8981 -0.4059 -0.1693
              Bcc     0.0036     1.930     0.689     0.644  0.3808  0.9103 -0.1627
 
              Baa    -0.0063    -0.848    -0.303    -0.283  0.4314 -0.0401  0.9013
    11 C(13)  Bbb     0.0001     0.008     0.003     0.003  0.9020  0.0050 -0.4316
              Bcc     0.0063     0.841     0.300     0.280  0.0128  0.9992  0.0383
 
              Baa    -0.0012    -0.655    -0.234    -0.218  0.3514 -0.0511  0.9348
    12 H(1)   Bbb    -0.0008    -0.433    -0.154    -0.144  0.9361  0.0009 -0.3518
              Bcc     0.0020     1.088     0.388     0.363  0.0171  0.9987  0.0481
 
              Baa    -0.0046    -0.612    -0.219    -0.204  0.8980  0.1187 -0.4237
    13 C(13)  Bbb    -0.0020    -0.275    -0.098    -0.092  0.4220  0.0401  0.9057
              Bcc     0.0066     0.887     0.316     0.296 -0.1245  0.9921  0.0140
 
              Baa    -0.0020    -1.044    -0.373    -0.348  0.2126 -0.1580  0.9643
    14 H(1)   Bbb    -0.0016    -0.865    -0.309    -0.288  0.9079  0.3968 -0.1351
              Bcc     0.0036     1.909     0.681     0.637 -0.3613  0.9042  0.2278
 
              Baa    -0.0164    -2.197    -0.784    -0.733  0.4929 -0.0430  0.8690
    15 C(13)  Bbb    -0.0015    -0.205    -0.073    -0.068  0.6803  0.6417 -0.3541
              Bcc     0.0179     2.402     0.857     0.801 -0.5424  0.7658  0.3456
 
              Baa    -0.0126    -1.685    -0.601    -0.562  0.2151 -0.2209  0.9513
    16 C(13)  Bbb    -0.0006    -0.084    -0.030    -0.028  0.9715  0.1482 -0.1852
              Bcc     0.0132     1.769     0.631     0.590 -0.1000  0.9640  0.2465
 
              Baa    -0.0043    -2.299    -0.820    -0.767  0.0103 -0.3438  0.9390
    17 H(1)   Bbb    -0.0022    -1.170    -0.417    -0.390  0.7552  0.6181  0.2180
              Bcc     0.0065     3.468     1.238     1.157 -0.6554  0.7069  0.2660
 
              Baa    -0.0058    -3.103    -1.107    -1.035 -0.0940  0.7255 -0.6817
    18 H(1)   Bbb    -0.0043    -2.317    -0.827    -0.773  0.8788  0.3822  0.2856
              Bcc     0.0102     5.420     1.934     1.808 -0.4678  0.5723  0.6735
 
              Baa    -0.5988    14.672     5.235     4.894  0.0176 -0.0376  0.9991
    19 Ru(99) Bbb     0.2726    -6.680    -2.384    -2.228  0.9997 -0.0165 -0.0182
              Bcc     0.3262    -7.992    -2.852    -2.666  0.0172  0.9992  0.0373
 
              Baa    -0.0142    -7.555    -2.696    -2.520  0.9555 -0.1166  0.2708
    20 H(1)   Bbb    -0.0116    -6.174    -2.203    -2.060  0.1463  0.9849 -0.0922
              Bcc     0.0257    13.730     4.899     4.580 -0.2560  0.1277  0.9582
 
              Baa    -0.0100    -1.336    -0.477    -0.446  0.3324  0.9189  0.2123
    21 C(13)  Bbb    -0.0089    -1.196    -0.427    -0.399 -0.6567  0.0639  0.7514
              Bcc     0.0189     2.532     0.903     0.845  0.6769 -0.3892  0.6247
 
              Baa    -0.0122    -1.641    -0.586    -0.547  0.3605  0.4648  0.8087
    22 C(13)  Bbb    -0.0095    -1.269    -0.453    -0.423 -0.4352  0.8507 -0.2949
              Bcc     0.0217     2.910     1.038     0.971  0.8250  0.2457 -0.5089
 
              Baa    -0.0136    -1.826    -0.652    -0.609  0.2814 -0.5425  0.7915
    23 C(13)  Bbb    -0.0108    -1.445    -0.516    -0.482  0.4617  0.7996  0.3840
              Bcc     0.0244     3.272     1.167     1.091  0.8412 -0.2574 -0.4755
 
              Baa    -0.0094    -1.263    -0.451    -0.421 -0.2369  0.9296 -0.2824
    24 C(13)  Bbb    -0.0087    -1.165    -0.416    -0.388  0.7155 -0.0297 -0.6980
              Bcc     0.0181     2.428     0.866     0.810  0.6572  0.3674  0.6581
 
              Baa    -0.0043    -0.577    -0.206    -0.192 -0.2358 -0.6316  0.7386
    25 C(13)  Bbb    -0.0036    -0.482    -0.172    -0.161  0.8262 -0.5304 -0.1899
              Bcc     0.0079     1.059     0.378     0.353  0.5117  0.5654  0.6469
 
              Baa    -0.0036    -1.911    -0.682    -0.637 -0.2199 -0.4102  0.8851
    26 H(1)   Bbb    -0.0026    -1.401    -0.500    -0.467  0.8429 -0.5367 -0.0393
              Bcc     0.0062     3.312     1.182     1.105  0.4912  0.7374  0.4637
 
              Baa    -0.0071    -3.803    -1.357    -1.269  0.3603  0.6967 -0.6204
    27 H(1)   Bbb    -0.0052    -2.779    -0.991    -0.927  0.8750 -0.4829 -0.0341
              Bcc     0.0123     6.582     2.349     2.196  0.3233  0.5305  0.7836
 
              Baa    -0.0023    -1.240    -0.442    -0.414  0.1860  0.7575 -0.6258
    28 H(1)   Bbb    -0.0019    -1.009    -0.360    -0.337  0.8608 -0.4327 -0.2680
              Bcc     0.0042     2.249     0.802     0.750  0.4738  0.4888  0.7325
 
              Baa    -0.0042    -0.566    -0.202    -0.189 -0.6110  0.4838  0.6266
    29 C(13)  Bbb    -0.0038    -0.504    -0.180    -0.168  0.3209  0.8749 -0.3626
              Bcc     0.0080     1.070     0.382     0.357  0.7237  0.0205  0.6898
 
              Baa    -0.0022    -1.184    -0.422    -0.395  0.7319 -0.4344 -0.5250
    30 H(1)   Bbb    -0.0020    -1.058    -0.378    -0.353  0.3029  0.8976 -0.3203
              Bcc     0.0042     2.242     0.800     0.748  0.6104  0.0754  0.7885
 
              Baa    -0.0065    -3.493    -1.247    -1.165  0.7167 -0.3625 -0.5957
    31 H(1)   Bbb    -0.0047    -2.485    -0.887    -0.829  0.3621  0.9235 -0.1263
              Bcc     0.0112     5.979     2.133     1.994  0.5960 -0.1252  0.7932
 
              Baa    -0.0029    -1.524    -0.544    -0.508 -0.4985  0.2622  0.8263
    32 H(1)   Bbb    -0.0023    -1.237    -0.442    -0.413  0.2418  0.9574 -0.1579
              Bcc     0.0052     2.761     0.985     0.921  0.8325 -0.1211  0.5406
 
              Baa    -0.0041    -0.552    -0.197    -0.184 -0.3399  0.2967  0.8924
    33 C(13)  Bbb    -0.0039    -0.525    -0.187    -0.175 -0.3248  0.8535 -0.4075
              Bcc     0.0080     1.077     0.384     0.359  0.8826  0.4284  0.1937
 
              Baa    -0.0017    -0.885    -0.316    -0.295 -0.3417  0.9150 -0.2144
    34 H(1)   Bbb    -0.0013    -0.677    -0.242    -0.226 -0.5373 -0.0030  0.8434
              Bcc     0.0029     1.563     0.558     0.521  0.7711  0.4034  0.4926
 
              Baa    -0.0021    -1.140    -0.407    -0.380  0.0052  0.7251 -0.6886
    35 H(1)   Bbb    -0.0017    -0.895    -0.319    -0.299 -0.2906  0.6600  0.6928
              Bcc     0.0038     2.035     0.726     0.679  0.9568  0.1965  0.2141
 
              Baa    -0.0022    -1.168    -0.417    -0.390 -0.5372  0.5636  0.6276
    36 H(1)   Bbb    -0.0018    -0.966    -0.345    -0.322  0.2844 -0.5794  0.7638
              Bcc     0.0040     2.134     0.761     0.712  0.7941  0.5888  0.1510
 
              Baa    -0.0048    -0.651    -0.232    -0.217  0.1396  0.6826  0.7173
    37 C(13)  Bbb    -0.0045    -0.607    -0.217    -0.203 -0.5387  0.6602 -0.5234
              Bcc     0.0094     1.258     0.449     0.420  0.8309  0.3133 -0.4599
 
              Baa    -0.0023    -1.247    -0.445    -0.416  0.3164 -0.6319  0.7075
    38 H(1)   Bbb    -0.0017    -0.933    -0.333    -0.311 -0.1021  0.7189  0.6876
              Bcc     0.0041     2.180     0.778     0.727  0.9431  0.2898 -0.1629
 
              Baa    -0.0019    -1.020    -0.364    -0.340  0.4438 -0.1758  0.8787
    39 H(1)   Bbb    -0.0012    -0.666    -0.238    -0.222  0.0911  0.9843  0.1509
              Bcc     0.0032     1.686     0.601     0.562  0.8915 -0.0131 -0.4528
 
              Baa    -0.0025    -1.328    -0.474    -0.443  0.3028  0.5836  0.7535
    40 H(1)   Bbb    -0.0018    -0.983    -0.351    -0.328 -0.5810  0.7397 -0.3394
              Bcc     0.0043     2.311     0.825     0.771  0.7555  0.3350 -0.5630
 
              Baa    -0.0038    -0.516    -0.184    -0.172  0.1004  0.0925  0.9906
    41 C(13)  Bbb    -0.0027    -0.364    -0.130    -0.121  0.2956  0.9479 -0.1185
              Bcc     0.0066     0.880     0.314     0.293  0.9500 -0.3047 -0.0679
 
              Baa    -0.0023    -1.217    -0.434    -0.406  0.2234  0.0471  0.9736
    42 H(1)   Bbb    -0.0018    -0.936    -0.334    -0.312  0.3578  0.9252 -0.1269
              Bcc     0.0040     2.153     0.768     0.718  0.9067 -0.3767 -0.1898
 
              Baa    -0.0025    -1.317    -0.470    -0.439 -0.0600  0.2876  0.9559
    43 H(1)   Bbb    -0.0021    -1.145    -0.409    -0.382  0.2318  0.9354 -0.2669
              Bcc     0.0046     2.462     0.879     0.821  0.9709 -0.2056  0.1228
 
              Baa    -0.0053    -2.835    -1.011    -0.946 -0.0663  0.0377  0.9971
    44 H(1)   Bbb    -0.0038    -2.042    -0.729    -0.681  0.4614  0.8872 -0.0029
              Bcc     0.0091     4.876     1.740     1.627  0.8847 -0.4599  0.0762
 
              Baa    -0.0055    -0.734    -0.262    -0.245 -0.0371  0.9475 -0.3175
    45 C(13)  Bbb    -0.0042    -0.559    -0.199    -0.186  0.7060  0.2498  0.6627
              Bcc     0.0096     1.293     0.461     0.431  0.7072 -0.1996 -0.6782
 
              Baa    -0.0085    -4.544    -1.621    -1.516  0.5029 -0.4139  0.7588
    46 H(1)   Bbb    -0.0065    -3.451    -1.231    -1.151  0.5661  0.8211  0.0727
              Bcc     0.0150     7.995     2.853     2.667  0.6532 -0.3930 -0.6472
 
              Baa    -0.0049    -2.612    -0.932    -0.871 -0.4481  0.8430 -0.2976
    47 H(1)   Bbb    -0.0043    -2.315    -0.826    -0.772  0.6793  0.5375  0.4996
              Bcc     0.0092     4.926     1.758     1.643 -0.5811 -0.0217  0.8135
 
              Baa    -0.0027    -1.449    -0.517    -0.483  0.4010 -0.6227  0.6719
    48 H(1)   Bbb    -0.0022    -1.161    -0.414    -0.387  0.5738  0.7425  0.3456
              Bcc     0.0049     2.610     0.931     0.871  0.7141 -0.2470 -0.6551
 
              Baa    -0.0044    -0.589    -0.210    -0.197  0.4822  0.7172 -0.5031
    49 C(13)  Bbb    -0.0039    -0.517    -0.184    -0.172 -0.4792  0.6967  0.5338
              Bcc     0.0082     1.106     0.395     0.369  0.7333 -0.0163  0.6797
 
              Baa    -0.0024    -1.259    -0.449    -0.420  0.5254  0.7560 -0.3904
    50 H(1)   Bbb    -0.0020    -1.093    -0.390    -0.365 -0.5190  0.6483  0.5571
              Bcc     0.0044     2.352     0.839     0.785  0.6743 -0.0901  0.7330
 
              Baa    -0.0066    -3.545    -1.265    -1.183  0.5577  0.6692 -0.4911
    51 H(1)   Bbb    -0.0058    -3.085    -1.101    -1.029 -0.5613  0.7399  0.3708
              Bcc     0.0124     6.630     2.366     2.212  0.6115  0.0688  0.7882
 
              Baa    -0.0034    -1.811    -0.646    -0.604 -0.4162 -0.4140  0.8096
    52 H(1)   Bbb    -0.0028    -1.470    -0.525    -0.490 -0.3298  0.8984  0.2899
              Bcc     0.0061     3.281     1.171     1.095  0.8474  0.1463  0.5105
 
              Baa    -0.0045    -0.604    -0.215    -0.201 -0.3164 -0.3558  0.8794
    53 C(13)  Bbb    -0.0043    -0.580    -0.207    -0.193  0.2911  0.8459  0.4469
              Bcc     0.0088     1.184     0.422     0.395  0.9029 -0.3974  0.1640
 
              Baa    -0.0018    -0.939    -0.335    -0.313  0.3372  0.9156  0.2188
    54 H(1)   Bbb    -0.0013    -0.687    -0.245    -0.229 -0.5110 -0.0172  0.8594
              Bcc     0.0030     1.626     0.580     0.542  0.7907 -0.4016  0.4621
 
              Baa    -0.0022    -1.160    -0.414    -0.387 -0.0225  0.6832  0.7298
    55 H(1)   Bbb    -0.0017    -0.921    -0.329    -0.307  0.2491  0.7108 -0.6578
              Bcc     0.0039     2.081     0.742     0.694  0.9682 -0.1670  0.1862
 
              Baa    -0.0023    -1.201    -0.429    -0.401  0.5290  0.6451 -0.5514
    56 H(1)   Bbb    -0.0018    -0.971    -0.346    -0.324  0.2475  0.5042  0.8274
              Bcc     0.0041     2.172     0.775     0.724  0.8117 -0.5742  0.1070
 
              Baa    -0.0043    -0.579    -0.207    -0.193 -0.1058  0.6550  0.7482
    57 C(13)  Bbb    -0.0037    -0.502    -0.179    -0.168  0.8347  0.4675 -0.2912
              Bcc     0.0081     1.082     0.386     0.361  0.5405 -0.5937  0.5962
 
              Baa    -0.0035    -1.891    -0.675    -0.631 -0.1640  0.3796  0.9105
    58 H(1)   Bbb    -0.0027    -1.452    -0.518    -0.484  0.8444  0.5312 -0.0695
              Bcc     0.0063     3.343     1.193     1.115 -0.5100  0.7574 -0.4077
 
              Baa    -0.0066    -3.532    -1.260    -1.178 -0.4543  0.5636  0.6898
    59 H(1)   Bbb    -0.0060    -3.202    -1.143    -1.068  0.8169  0.5725  0.0702
              Bcc     0.0126     6.734     2.403     2.246  0.3554 -0.5954  0.7205
 
              Baa    -0.0024    -1.260    -0.450    -0.420  0.0341  0.8003  0.5987
    60 H(1)   Bbb    -0.0020    -1.090    -0.389    -0.364  0.8607  0.2809 -0.4246
              Bcc     0.0044     2.351     0.839     0.784  0.5079 -0.5298  0.6792
 
              Baa    -0.0050    -0.670    -0.239    -0.224  0.4700  0.6561  0.5905
    61 C(13)  Bbb    -0.0043    -0.571    -0.204    -0.190 -0.5974  0.7289 -0.3345
              Bcc     0.0092     1.241     0.443     0.414 -0.6499 -0.1955  0.7345
 
              Baa    -0.0083    -4.414    -1.575    -1.472  0.5895  0.4052  0.6988
    62 H(1)   Bbb    -0.0059    -3.127    -1.116    -1.043 -0.5535  0.8327 -0.0160
              Bcc     0.0141     7.541     2.691     2.515 -0.5883 -0.3774  0.7152
 
              Baa    -0.0046    -2.444    -0.872    -0.815  0.8537  0.1682  0.4929
    63 H(1)   Bbb    -0.0039    -2.083    -0.743    -0.695 -0.1386  0.9857 -0.0963
              Bcc     0.0085     4.527     1.615     1.510 -0.5021  0.0138  0.8647
 
              Baa    -0.0026    -1.372    -0.490    -0.458  0.5157  0.5302  0.6730
    64 H(1)   Bbb    -0.0020    -1.073    -0.383    -0.358 -0.5329  0.8136 -0.2325
              Bcc     0.0046     2.446     0.873     0.816 -0.6708 -0.2387  0.7021
 
              Baa    -0.0046    -0.612    -0.218    -0.204  0.2720 -0.5266  0.8054
    65 C(13)  Bbb    -0.0043    -0.580    -0.207    -0.193  0.4884  0.7967  0.3559
              Bcc     0.0089     1.192     0.425     0.398  0.8291 -0.2966 -0.4740
 
              Baa    -0.0023    -1.210    -0.432    -0.404  0.3271  0.6338  0.7009
    66 H(1)   Bbb    -0.0017    -0.925    -0.330    -0.308  0.0690  0.7237 -0.6866
              Bcc     0.0040     2.134     0.762     0.712  0.9425 -0.2729 -0.1930
 
              Baa    -0.0018    -0.985    -0.351    -0.328  0.4758  0.1443  0.8676
    67 H(1)   Bbb    -0.0012    -0.640    -0.228    -0.214 -0.0866  0.9893 -0.1171
              Bcc     0.0030     1.625     0.580     0.542  0.8753  0.0194 -0.4832
 
              Baa    -0.0024    -1.299    -0.464    -0.433  0.3841 -0.5164  0.7653
    68 H(1)   Bbb    -0.0018    -0.942    -0.336    -0.314  0.5540  0.7921  0.2564
              Bcc     0.0042     2.241     0.800     0.747  0.7386 -0.3255 -0.5904
 
              Baa    -0.0039    -0.523    -0.187    -0.174  0.1488 -0.0650  0.9867
    69 C(13)  Bbb    -0.0027    -0.365    -0.130    -0.122 -0.2902  0.9510  0.1064
              Bcc     0.0066     0.888     0.317     0.296  0.9453  0.3022 -0.1227
 
              Baa    -0.0023    -1.208    -0.431    -0.403  0.2880 -0.0762  0.9546
    70 H(1)   Bbb    -0.0017    -0.915    -0.327    -0.305 -0.3387  0.9243  0.1760
              Bcc     0.0040     2.123     0.758     0.708  0.8957  0.3740 -0.2404
 
              Baa    -0.0025    -1.359    -0.485    -0.453 -0.0010 -0.3465  0.9381
    71 H(1)   Bbb    -0.0022    -1.154    -0.412    -0.385 -0.2236  0.9144  0.3375
              Bcc     0.0047     2.513     0.897     0.838  0.9747  0.2094  0.0784
 
              Baa    -0.0055    -2.920    -1.042    -0.974  0.0403 -0.0908  0.9951
    72 H(1)   Bbb    -0.0039    -2.103    -0.750    -0.702 -0.4644  0.8800  0.0991
              Bcc     0.0094     5.023     1.792     1.676  0.8847  0.4661  0.0067
 
              Baa    -0.4655    33.682    12.018    11.235  0.0620 -0.1080  0.9922
    73 O(17)  Bbb     0.0842    -6.093    -2.174    -2.033 -0.0368  0.9932  0.1104
              Bcc     0.3813   -27.588    -9.844    -9.202  0.9974  0.0434 -0.0576
 
              Baa    -0.0519    -6.966    -2.486    -2.324  0.2293  0.9732  0.0178
    74 C(13)  Bbb    -0.0383    -5.133    -1.832    -1.712  0.9725 -0.2283 -0.0460
              Bcc     0.0902    12.099     4.317     4.036  0.0407 -0.0279  0.9988
 
              Baa    -0.0341   -18.208    -6.497    -6.073  0.9973  0.0268 -0.0680
    75 H(1)   Bbb    -0.0133    -7.075    -2.525    -2.360 -0.0527  0.9083 -0.4150
              Bcc     0.0474    25.283     9.022     8.433  0.0506  0.4174  0.9073
 
              Baa    -0.0559     4.042     1.442     1.348  0.0909  0.9952  0.0353
    76 O(17)  Bbb    -0.0368     2.664     0.951     0.889  0.9943 -0.0887 -0.0590
              Bcc     0.0927    -6.706    -2.393    -2.237  0.0556 -0.0405  0.9976
 

 ---------------------------------------------------------------------------------

 Unable to Open any file for archive entry.
 1\1\GINC-NODE056\SP\UB3LYP\def2SVP\C24H45N1O3P2Ru1(3)\DO57CIG\16-Jan-2
 025\0\\# ub3lyp scrf=(smd,solvent=water) def2svp empiricaldispersion=g
 d3bj int=ultrafine scf=xqc guess=read\\A_Ru_Cis_straight_CO_DFT_B3LYP_
 def2SVP_smd_water_T_3MC_freezedScan_2_1\\0,3\P,0,2.412868,-0.094449,-0
 .144265\N,0,-0.014745,1.67011,-0.067832\C,0,2.18893,1.497128,-1.074514
 \H,0,3.113566,2.087781,-1.109246\H,0,1.953738,1.189827,-2.107226\O,0,-
 0.142639,-1.080228,-2.140182\P,0,-2.428322,-0.088089,0.052854\C,0,1.05
 4182,2.32638,-0.534279\C,0,1.114542,3.72489,-0.504876\H,0,1.992958,4.2
 41783,-0.894696\C,0,0.04121,4.42916,0.042209\H,0,0.062461,5.520526,0.0
 84666\C,0,-1.057448,3.726797,0.538424\H,0,-1.91242,4.245906,0.974803\C
 ,0,-1.05312,2.328339,0.459942\C,0,-2.212963,1.510172,0.968938\H,0,-3.1
 32233,2.11112,0.970919\H,0,-2.011577,1.219289,2.014087\Ru,0,-0.0121622
 7,-1.01070848,-0.05203733\H,0,0.692632,-1.43269,-2.464648\C,0,-3.25186
 7,0.414832,-1.597843\C,0,-3.689242,-1.026507,1.141738\C,0,3.672968,-1.
 033084,-1.235163\C,0,3.23895,0.41126,1.50261\C,0,2.316777,1.435151,2.1
 94192\H,0,2.315062,2.400477,1.671025\H,0,1.27969,1.092861,2.284222\H,0
 ,2.702246,1.612888,3.211336\C,0,3.382488,-0.831614,2.403768\H,0,3.5211
 61,-0.503169,3.446828\H,0,2.501202,-1.483887,2.374833\H,0,4.256058,-1.
 434578,2.131644\C,0,4.614888,1.069055,1.328299\H,0,4.960743,1.42544,2.
 3136\H,0,5.368667,0.364833,0.953429\H,0,4.578807,1.940314,0.657466\C,0
 ,4.74511,-0.114754,-1.842777\H,0,5.322707,0.432533,-1.089586\H,0,5.451
 726,-0.73695,-2.41789\H,0,4.308508,0.612477,-2.542041\C,0,4.330706,-2.
 153531,-0.417947\H,0,4.873638,-2.822089,-1.106183\H,0,5.057683,-1.7668
 37,0.307096\H,0,3.584063,-2.758676,0.11881\C,0,2.906494,-1.687136,-2.3
 94227\H,0,2.185308,-2.432688,-2.030052\H,0,2.39151,-0.942841,-3.019376
 \H,0,3.627573,-2.211705,-3.042014\C,0,-3.305865,-0.812024,-2.526736\H,
 0,-3.622781,-0.480335,-3.530174\H,0,-2.318534,-1.282973,-2.614999\H,0,
 -4.029577,-1.561929,-2.187181\C,0,-4.659288,1.003095,-1.433168\H,0,-5.
 000366,1.37308,-2.415293\H,0,-5.388741,0.25561,-1.095253\H,0,-4.677611
 ,1.854828,-0.736724\C,0,-2.365234,1.487083,-2.258986\H,0,-2.389092,2.4
 38805,-1.710576\H,0,-1.322309,1.164388,-2.356179\H,0,-2.758542,1.68174
 4,-3.270545\C,0,-2.923237,-1.658418,2.312524\H,0,-2.185951,-2.395359,1
 .966545\H,0,-2.408753,-0.907964,2.926963\H,0,-3.645996,-2.180454,2.961
 255\C,0,-4.776892,-0.114107,1.731119\H,0,-5.362472,0.410039,0.968029\H
 ,0,-5.474454,-0.736122,2.317381\H,0,-4.352501,0.632985,2.417059\C,0,-4
 .327081,-2.163039,0.330299\H,0,-4.882085,-2.821634,1.018632\H,0,-5.039
 442,-1.794447,-0.418833\H,0,-3.566315,-2.775045,-0.178514\O,0,0.018449
 27,-3.09977652,-0.26383367\C,0,0.05929373,-1.04636848,1.76684967\H,0,-
 0.04491373,-3.10186452,-1.23464167\O,0,0.12707673,-1.08763748,2.936182
 67\\Version=ES64L-G16RevC.02\State=3-A\HF=-1998.9490533\S2=2.020324\S2
 -1=0.\S2A=2.00023\RMSD=2.497e-09\Dipole=0.8626918,4.9854451,-0.0007826
 \Quadrupole=26.0446559,-9.8736839,-16.170972,-1.6029171,-8.8681236,3.5
 181795\PG=C01 [X(C24H45N1O3P2Ru1)]\\@
 The archive entry for this job was punched.


 IF MATHEMATICALLY YOU END UP WITH THE INCORRECT ANSWER,
 TRY MULTIPLYING BY THE PAGE NUMBER.
 Job cpu time:       0 days  1 hours 42 minutes 31.1 seconds.
 Elapsed time:       0 days  0 hours  4 minutes 42.3 seconds.
 File lengths (MBytes):  RWF=    819 Int=      0 D2E=      0 Chk=     67 Scr=      1
 Normal termination of Gaussian 16 at Thu Jan 16 18:18:28 2025.
