 Entering Gaussian System, Link 0=g16
 Input=A_Ru_Cis_straight_CO_DFT_B3LYP_def2SVP_smd_water_T_3MC_freezedScan_2_7.gjf
 Output=A_Ru_Cis_straight_CO_DFT_B3LYP_def2SVP_smd_water_T_3MC_freezedScan_2_7.log
 Initial command:
 /cluster/apps/gaussian/g16_c02/g16/l1.exe "/beegfs/do57cig/gauss2178644/Gau-205086.inp" -scrdir="/beegfs/do57cig/gauss2178644/"
 Default CPUs for threads: 0-23
 Default is to use a total of  24 processors:
                               24 via shared-memory
                                1 via Linda
 Entering Link 1 = /cluster/apps/gaussian/g16_c02/g16/l1.exe PID=    205087.
  
 Copyright (c) 1988-2021, Gaussian, Inc.  All Rights Reserved.
  
 This is part of the Gaussian(R) 16 program.  It is based on
 the Gaussian(R) 09 system (copyright 2009, Gaussian, Inc.),
 the Gaussian(R) 03 system (copyright 2003, Gaussian, Inc.),
 the Gaussian(R) 98 system (copyright 1998, Gaussian, Inc.),
 the Gaussian(R) 94 system (copyright 1995, Gaussian, Inc.),
 the Gaussian 92(TM) system (copyright 1992, Gaussian, Inc.),
 the Gaussian 90(TM) system (copyright 1990, Gaussian, Inc.),
 the Gaussian 88(TM) system (copyright 1988, Gaussian, Inc.),
 the Gaussian 86(TM) system (copyright 1986, Carnegie Mellon
 University), and the Gaussian 82(TM) system (copyright 1983,
 Carnegie Mellon University). Gaussian is a federally registered
 trademark of Gaussian, Inc.
  
 This software contains proprietary and confidential information,
 including trade secrets, belonging to Gaussian, Inc.
  
 This software is provided under written license and may be
 used, copied, transmitted, or stored only in accord with that
 written license.
  
 The following legend is applicable only to US Government
 contracts under FAR:
  
                    RESTRICTED RIGHTS LEGEND
  
 Use, reproduction and disclosure by the US Government is
 subject to restrictions as set forth in subparagraphs (a)
 and (c) of the Commercial Computer Software - Restricted
 Rights clause in FAR 52.227-19.
  
 Gaussian, Inc.
 340 Quinnipiac St., Bldg. 40, Wallingford CT 06492
  
  
 ---------------------------------------------------------------
 Warning -- This program may not be used in any manner that
 competes with the business of Gaussian, Inc. or will provide
 assistance to any competitor of Gaussian, Inc.  The licensee
 of this program is prohibited from giving any competitor of
 Gaussian, Inc. access to this program.  By using this program,
 the user acknowledges that Gaussian, Inc. is engaged in the
 business of creating and licensing software in the field of
 computational chemistry and represents and warrants to the
 licensee that it is not a competitor of Gaussian, Inc. and that
 it will not use this program in any manner prohibited above.
 ---------------------------------------------------------------
  

 Cite this work as:
 Gaussian 16, Revision C.02,
 M. J. Frisch, G. W. Trucks, H. B. Schlegel, G. E. Scuseria, 
 M. A. Robb, J. R. Cheeseman, G. Scalmani, V. Barone, 
 G. A. Petersson, H. Nakatsuji, X. Li, M. Caricato, A. V. Marenich, 
 J. Bloino, B. G. Janesko, R. Gomperts, B. Mennucci, H. P. Hratchian, 
 J. V. Ortiz, A. F. Izmaylov, J. L. Sonnenberg, D. Williams-Young, 
 F. Ding, F. Lipparini, F. Egidi, J. Goings, B. Peng, A. Petrone, 
 T. Henderson, D. Ranasinghe, V. G. Zakrzewski, J. Gao, N. Rega, 
 G. Zheng, W. Liang, M. Hada, M. Ehara, K. Toyota, R. Fukuda, 
 J. Hasegawa, M. Ishida, T. Nakajima, Y. Honda, O. Kitao, H. Nakai, 
 T. Vreven, K. Throssell, J. A. Montgomery, Jr., J. E. Peralta, 
 F. Ogliaro, M. J. Bearpark, J. J. Heyd, E. N. Brothers, K. N. Kudin, 
 V. N. Staroverov, T. A. Keith, R. Kobayashi, J. Normand, 
 K. Raghavachari, A. P. Rendell, J. C. Burant, S. S. Iyengar, 
 J. Tomasi, M. Cossi, J. M. Millam, M. Klene, C. Adamo, R. Cammi, 
 J. W. Ochterski, R. L. Martin, K. Morokuma, O. Farkas, 
 J. B. Foresman, and D. J. Fox, Gaussian, Inc., Wallingford CT, 2019.
 
 ******************************************
 Gaussian 16:  ES64L-G16RevC.02  7-Dec-2021
                16-Jan-2025 
 ******************************************
 %chk=A_Ru_Cis_straight_CO_DFT_B3LYP_def2SVP_smd_water_T_3MC_freezedScan_2_7.chk
 %Oldchk=A_Ru_Cis_straight_CO_DFT_B3LYP_def2SVP_smd_water_T_3MC_tweaked_geom.chk
 SetSPE:  set environment variable "OMP_PROC_BIND" = "true"
 SetSPE:  set environment variable "OMP_PLACES" = "{0},{1},{2},{3},{4},{5},{6},{7},{8},{9},{10},{11},{12},{13},{14},{15},{16},{17},{18},{19},{20},{21},{22},{23}"
 Copying data from "A_Ru_Cis_straight_CO_DFT_B3LYP_def2SVP_smd_water_T_3MC_tweaked_geom.chk" to current chk file "A_Ru_Cis_straight_CO_DFT_B3LYP_def2SVP_smd_water_T_3MC_freezedScan_2_7.chk"
 IOpt=  2 FromEx=T IUOpen= 4 IOptOp= 5 NList=   0 IFRang= 0 IUIn= 4 IUOut= 2.
 ----------------------------------------------------------------------
 # ub3lyp scrf=(smd,solvent=water) def2svp empiricaldispersion=gd3bj in
 t=ultrafine scf=xqc guess=read
 ----------------------------------------------------------------------
 1/38=1,172=1/1;
 2/12=2,17=6,18=5,40=1/2;
 3/5=43,7=101,11=2,25=1,30=1,70=32201,72=1,74=-5,75=-5,116=2,124=41/1,2,3;
 4/5=1/1;
 5/5=2,8=3,13=1,38=6,53=1/2,8;
 6/7=2,8=2,9=2,10=2,28=1/1;
 99/5=1,9=1/99;
 -----------------------------------------------------------------
 A_Ru_Cis_DFT_B3LYP_def2svp_smd_water_T_Opt_3MLCT_from_3MLCT_trans
 -----------------------------------------------------------------
 Symbolic Z-matrix:
 Charge =  0 Multiplicity = 3
 P                     2.41287  -0.09445  -0.14427 
 N                    -0.01475   1.67011  -0.06783 
 C                     2.18893   1.49713  -1.07451 
 H                     3.11357   2.08778  -1.10925 
 H                     1.95374   1.18983  -2.10723 
 O                    -0.14264  -1.08023  -2.14018 
 P                    -2.42832  -0.08809   0.05285 
 C                     1.05418   2.32638  -0.53428 
 C                     1.11454   3.72489  -0.50488 
 H                     1.99296   4.24178  -0.8947 
 C                     0.04121   4.42916   0.04221 
 H                     0.06246   5.52053   0.08467 
 C                    -1.05745   3.7268    0.53842 
 H                    -1.91242   4.24591   0.9748 
 C                    -1.05312   2.32834   0.45994 
 C                    -2.21296   1.51017   0.96894 
 H                    -3.13223   2.11112   0.97092 
 H                    -2.01158   1.21929   2.01409 
 Ru                   -0.01216  -1.01071  -0.05204 
 H                     0.69263  -1.43269  -2.46465 
 C                    -3.25187   0.41483  -1.59784 
 C                    -3.68924  -1.02651   1.14174 
 C                     3.67297  -1.03308  -1.23516 
 C                     3.23895   0.41126   1.50261 
 C                     2.31678   1.43515   2.19419 
 H                     2.31506   2.40048   1.67103 
 H                     1.27969   1.09286   2.28422 
 H                     2.70225   1.61289   3.21134 
 C                     3.38249  -0.83161   2.40377 
 H                     3.52116  -0.50317   3.44683 
 H                     2.5012   -1.48389   2.37483 
 H                     4.25606  -1.43458   2.13164 
 C                     4.61489   1.06906   1.3283 
 H                     4.96074   1.42544   2.3136 
 H                     5.36867   0.36483   0.95343 
 H                     4.57881   1.94031   0.65747 
 C                     4.74511  -0.11475  -1.84278 
 H                     5.32271   0.43253  -1.08959 
 H                     5.45173  -0.73695  -2.41789 
 H                     4.30851   0.61248  -2.54204 
 C                     4.33071  -2.15353  -0.41795 
 H                     4.87364  -2.82209  -1.10618 
 H                     5.05768  -1.76684   0.3071 
 H                     3.58406  -2.75868   0.11881 
 C                     2.90649  -1.68714  -2.39423 
 H                     2.18531  -2.43269  -2.03005 
 H                     2.39151  -0.94284  -3.01938 
 H                     3.62757  -2.21171  -3.04201 
 C                    -3.30587  -0.81202  -2.52674 
 H                    -3.62278  -0.48034  -3.53017 
 H                    -2.31853  -1.28297  -2.615 
 H                    -4.02958  -1.56193  -2.18718 
 C                    -4.65929   1.0031   -1.43317 
 H                    -5.00037   1.37308  -2.41529 
 H                    -5.38874   0.25561  -1.09525 
 H                    -4.67761   1.85483  -0.73672 
 C                    -2.36523   1.48708  -2.25899 
 H                    -2.38909   2.43881  -1.71058 
 H                    -1.32231   1.16439  -2.35618 
 H                    -2.75854   1.68174  -3.27055 
 C                    -2.92324  -1.65842   2.31252 
 H                    -2.18595  -2.39536   1.96655 
 H                    -2.40875  -0.90796   2.92696 
 H                    -3.646    -2.18045   2.96126 
 C                    -4.77689  -0.11411   1.73112 
 H                    -5.36247   0.41004   0.96803 
 H                    -5.47445  -0.73612   2.31738 
 H                    -4.3525    0.63299   2.41706 
 C                    -4.32708  -2.16304   0.3303 
 H                    -4.88209  -2.82163   1.01863 
 H                    -5.03944  -1.79445  -0.41883 
 H                    -3.56632  -2.77505  -0.17851 
 O                     0.0272   -3.69665  -0.32435 
 C                     0.05929  -1.04637   1.76685 
 H                    -0.03617  -3.69874  -1.29515 
 O                     0.12708  -1.08764   2.93618 
 
 Stoichiometry    C24H45NO3P2Ru(3)
 Framework group  C1[X(C24H45NO3P2Ru)]
 Deg. of freedom   222
 Full point group                 C1      NOp   1
 Largest Abelian subgroup         C1      NOp   1
 Largest concise Abelian subgroup C1      NOp   1
                         Standard orientation:                         
 ---------------------------------------------------------------------
 Center     Atomic      Atomic             Coordinates (Angstroms)
 Number     Number       Type             X           Y           Z
 ---------------------------------------------------------------------
      1         15           0        2.412646   -0.079138   -0.141302
      2          7           0       -0.015433    1.685741   -0.091774
      3          6           0        2.188316    1.498048   -1.095655
      4          1           0        3.112798    2.088348   -1.139343
      5          1           0        1.953234    1.175015   -2.123580
      6          8           0       -0.142545   -1.095830   -2.122059
      7         15           0       -2.428551   -0.071055    0.055579
      8          6           0        1.053335    2.335122   -0.568122
      9          6           0        1.113326    3.733933   -0.559990
     10          1           0        1.991618    4.245069   -0.957605
     11          6           0        0.039794    4.446160   -0.023706
     12          1           0        0.060757    5.538051    0.002148
     13          6           0       -1.058694    3.751136    0.483107
     14          1           0       -1.913815    4.276596    0.911519
     15          6           0       -1.053996    2.351647    0.425903
     16          6           0       -2.213639    1.541011    0.947254
     17          1           0       -3.133066    2.141677    0.940073
     18          1           0       -2.012206    1.266109    1.996711
     19         44           0       -0.012146   -0.994527   -0.035210
     20          1           0        0.692828   -1.452966   -2.441106
     21          6           0       -3.252181    0.406487   -1.602596
     22          6           0       -3.689256   -0.993136    1.158578
     23          6           0        3.673024   -1.033923   -1.217768
     24          6           0        3.238548    0.451777    1.497711
     25          6           0        2.316086    1.485825    2.173619
     26          1           0        2.314132    2.443082    1.635831
     27          1           0        1.279087    1.144671    2.268819
     28          1           0        2.701479    1.679112    3.187951
     29          6           0        3.382387   -0.777210    2.417671
     30          1           0        3.520944   -0.432903    3.455619
     31          1           0        2.501273   -1.430079    2.398638
     32          1           0        4.256123   -1.384013    2.154770
     33          6           0        4.614318    1.107207    1.313450
     34          1           0        4.960051    1.478627    2.293225
     35          1           0        5.368293    0.397564    0.949352
     36          1           0        4.578027    1.968153    0.629443
     37          6           0        4.744941   -0.124658   -1.839252
     38          1           0        5.322373    0.434172   -1.094457
     39          1           0        5.451737   -0.755343   -2.404818
     40          1           0        4.308168    0.591739   -2.549506
     41          6           0        4.331033   -2.141639   -0.383590
     42          1           0        4.874160   -2.820444   -1.061565
     43          1           0        5.057887   -1.743771    0.335506
     44          1           0        3.584533   -2.738747    0.162290
     45          6           0        2.906754   -1.705729   -2.366769
     46          1           0        2.185754   -2.445846   -1.991315
     47          1           0        2.391593   -0.971164   -3.003178
     48          1           0        3.627990   -2.239900   -3.006486
     49          6           0       -3.305830   -0.834369   -2.512725
     50          1           0       -3.622805   -0.518063   -3.521099
     51          1           0       -2.318373   -1.306346   -2.593791
     52          1           0       -4.029355   -1.579214   -2.161821
     53          6           0       -4.659762    0.996815   -1.446922
     54          1           0       -5.000909    1.351731   -2.434568
     55          1           0       -5.389028    0.254364   -1.097695
     56          1           0       -4.678328    1.859037   -0.763512
     57          6           0       -2.365811    1.468792   -2.279949
     58          1           0       -2.389935    2.428738   -1.746077
     59          1           0       -1.322799    1.144930   -2.372197
     60          1           0       -2.759142    1.647942   -3.294361
     61          6           0       -2.923118   -1.606966    2.338858
     62          1           0       -2.185629   -2.348889    2.004145
     63          1           0       -2.408849   -0.847118    2.941825
     64          1           0       -3.645758   -2.119265    2.995435
     65          6           0       -4.777162   -0.072164    1.733988
     66          1           0       -5.362858    0.440162    0.963000
     67          1           0       -5.474577   -0.685374    2.329625
     68          1           0       -4.352987    0.685386    2.408496
     69          6           0       -4.326773   -2.142045    0.364502
     70          1           0       -4.881623   -2.790241    1.062758
     71          1           0       -5.039209   -1.785076   -0.390166
     72          1           0       -3.565832   -2.761518   -0.134926
     73          8           0        0.027925   -3.684292   -0.266637
     74          6           0        0.059267   -1.002501    1.784011
     75          1           0       -0.035410   -3.701161   -1.237303
     76          8           0        0.127028   -1.025963    2.953838
 ---------------------------------------------------------------------
 Rotational constants (GHZ):           0.1830480           0.1023024           0.0917386
 Standard basis: def2SVP (5D, 7F)
 There are   719 symmetry adapted cartesian basis functions of A   symmetry.
 There are   684 symmetry adapted basis functions of A   symmetry.
   684 basis functions,  1154 primitive gaussians,   719 cartesian basis functions
   134 alpha electrons      132 beta electrons
       nuclear repulsion energy      4434.5245225465 Hartrees.
 NAtoms=   76 NActive=   76 NUniq=   76 SFac= 1.00D+00 NAtFMM=   60 NAOKFM=T Big=T
 Integral buffers will be    131072 words long.
 Raffenetti 2 integral format.
 Two-electron integral symmetry is turned on.
 Nuclear repulsion after empirical dispersion term =     4434.3022967644 Hartrees.
 ------------------------------------------------------------------------------
 Polarizable Continuum Model (PCM)
 =================================
 Model                : PCM.
 Atomic radii         : SMD-Coulomb.
 Polarization charges : Total charges.
 Charge compensation  : None.
 Solution method      : On-the-fly selection.
 Cavity type          : VdW (van der Waals Surface) (Alpha=1.000).
 Cavity algorithm     : GePol (No added spheres)
                        Default sphere list used, NSphG=   76.
                        Lebedev-Laikov grids with approx.  5.0 points / Ang**2.
                        Smoothing algorithm: York/Karplus (Gamma=1.0000).
                        Polarization charges: spherical gaussians, with
                                              point-specific exponents (IZeta= 3).
                        Self-potential: point-specific (ISelfS= 7).
                        Self-field    : sphere-specific E.n sum rule (ISelfD= 2).
 Solvent              : Water, Eps=  78.355300 Eps(inf)=   1.777849
 ------------------------------------------------------------------------------
 ------------------------------------------------------------------------------
 Atomic radii for non-electrostatic terms: SMD-CDS.
 ------------------------------------------------------------------------------
 Nuclear repulsion after PCM non-electrostatic terms =     4434.3214564322 Hartrees.
 One-electron integrals computed using PRISM.
   1 Symmetry operations used in ECPInt.
 ECPInt:  NShTT=   54615 NPrTT=  190596 LenC2=   47800 LenP2D=  112622.
 LDataN:  DoStor=T MaxTD1= 7 Len=  274
 NBasis=   684 RedAO= T EigKep=  4.90D-04  NBF=   684
 NBsUse=   684 1.00D-06 EigRej= -1.00D+00 NBFU=   684
 Defaulting to unpruned grid for atomic number  44.
 Initial guess from the checkpoint file:  "A_Ru_Cis_straight_CO_DFT_B3LYP_def2SVP_smd_water_T_3MC_freezedScan_2_7.chk"
 B after Tr=    -0.000000    0.000000    0.000000
         Rot=    0.999969    0.007811    0.000018   -0.000161 Ang=   0.90 deg.
 Initial guess <Sx>= 0.0000 <Sy>= 0.0000 <Sz>= 1.0000 <S**2>= 2.0206 S= 1.0069
 Requested convergence on RMS density matrix=1.00D-08 within  32 cycles.
 Requested convergence on MAX density matrix=1.00D-06.
 Requested convergence on             energy=1.00D-06.
 No special actions if energy rises.
 Defaulting to unpruned grid for atomic number  44.
 Defaulting to unpruned grid for atomic number  44.
 Defaulting to unpruned grid for atomic number  44.
 Defaulting to unpruned grid for atomic number  44.
 Defaulting to unpruned grid for atomic number  44.
 Defaulting to unpruned grid for atomic number  44.
 Defaulting to unpruned grid for atomic number  44.
 Defaulting to unpruned grid for atomic number  44.
 Defaulting to unpruned grid for atomic number  44.
 Defaulting to unpruned grid for atomic number  44.
 Defaulting to unpruned grid for atomic number  44.
 Defaulting to unpruned grid for atomic number  44.
 Defaulting to unpruned grid for atomic number  44.
 Defaulting to unpruned grid for atomic number  44.
 Defaulting to unpruned grid for atomic number  44.
 Defaulting to unpruned grid for atomic number  44.
 Defaulting to unpruned grid for atomic number  44.
 Defaulting to unpruned grid for atomic number  44.
 Defaulting to unpruned grid for atomic number  44.
 Defaulting to unpruned grid for atomic number  44.
 Defaulting to unpruned grid for atomic number  44.
 Defaulting to unpruned grid for atomic number  44.
 Defaulting to unpruned grid for atomic number  44.
 Defaulting to unpruned grid for atomic number  44.
 Inv3:  Mode=1 IEnd=    67915692.
 Iteration    1 A*A^-1 deviation from unit magnitude is 3.66D-15 for    240.
 Iteration    1 A*A^-1 deviation from orthogonality  is 3.00D-15 for   2781   2160.
 Iteration    1 A^-1*A deviation from unit magnitude is 3.55D-15 for   2923.
 Iteration    1 A^-1*A deviation from orthogonality  is 6.11D-15 for   4709   3625.
 Restarting incremental Fock formation.
 Error on total polarization charges =  0.07728
 SCF Done:  E(UB3LYP) =  -1998.92515692     A.U. after   21 cycles
            NFock= 21  Conv=0.20D-08     -V/T= 2.0404
 <Sx>= 0.0000 <Sy>= 0.0000 <Sz>= 1.0000 <S**2>= 2.0229 S= 1.0076
 <L.S>=  0.00000000000    
 SMD-CDS (non-electrostatic) energy       (kcal/mol) =      12.02
 (included in total energy above)
 Annihilation of the first spin contaminant:
 S**2 before annihilation     2.0229,   after     2.0003
 QCSCF skips out because SCF is already converged.

 **********************************************************************

            Population analysis using the SCF Density.

 **********************************************************************

 Orbital symmetries:
 Alpha Orbitals:
       Occupied  (A) (A) (A) (A) (A) (A) (A) (A) (A) (A) (A) (A)
                 (A) (A) (A) (A) (A) (A) (A) (A) (A) (A) (A) (A)
                 (A) (A) (A) (A) (A) (A) (A) (A) (A) (A) (A) (A)
                 (A) (A) (A) (A) (A) (A) (A) (A) (A) (A) (A) (A)
                 (A) (A) (A) (A) (A) (A) (A) (A) (A) (A) (A) (A)
                 (A) (A) (A) (A) (A) (A) (A) (A) (A) (A) (A) (A)
                 (A) (A) (A) (A) (A) (A) (A) (A) (A) (A) (A) (A)
                 (A) (A) (A) (A) (A) (A) (A) (A) (A) (A) (A) (A)
                 (A) (A) (A) (A) (A) (A) (A) (A) (A) (A) (A) (A)
                 (A) (A) (A) (A) (A) (A) (A) (A) (A) (A) (A) (A)
                 (A) (A) (A) (A) (A) (A) (A) (A) (A) (A) (A) (A)
                 (A) (A)
       Virtual   (A) (A) (A) (A) (A) (A) (A) (A) (A) (A) (A) (A)
                 (A) (A) (A) (A) (A) (A) (A) (A) (A) (A) (A) (A)
                 (A) (A) (A) (A) (A) (A) (A) (A) (A) (A) (A) (A)
                 (A) (A) (A) (A) (A) (A) (A) (A) (A) (A) (A) (A)
                 (A) (A) (A) (A) (A) (A) (A) (A) (A) (A) (A) (A)
                 (A) (A) (A) (A) (A) (A) (A) (A) (A) (A) (A) (A)
                 (A) (A) (A) (A) (A) (A) (A) (A) (A) (A) (A) (A)
                 (A) (A) (A) (A) (A) (A) (A) (A) (A) (A) (A) (A)
                 (A) (A) (A) (A) (A) (A) (A) (A) (A) (A) (A) (A)
                 (A) (A) (A) (A) (A) (A) (A) (A) (A) (A) (A) (A)
                 (A) (A) (A) (A) (A) (A) (A) (A) (A) (A) (A) (A)
                 (A) (A) (A) (A) (A) (A) (A) (A) (A) (A) (A) (A)
                 (A) (A) (A) (A) (A) (A) (A) (A) (A) (A) (A) (A)
                 (A) (A) (A) (A) (A) (A) (A) (A) (A) (A) (A) (A)
                 (A) (A) (A) (A) (A) (A) (A) (A) (A) (A) (A) (A)
                 (A) (A) (A) (A) (A) (A) (A) (A) (A) (A) (A) (A)
                 (A) (A) (A) (A) (A) (A) (A) (A) (A) (A) (A) (A)
                 (A) (A) (A) (A) (A) (A) (A) (A) (A) (A) (A) (A)
                 (A) (A) (A) (A) (A) (A) (A) (A) (A) (A) (A) (A)
                 (A) (A) (A) (A) (A) (A) (A) (A) (A) (A) (A) (A)
                 (A) (A) (A) (A) (A) (A) (A) (A) (A) (A) (A) (A)
                 (A) (A) (A) (A) (A) (A) (A) (A) (A) (A) (A) (A)
                 (A) (A) (A) (A) (A) (A) (A) (A) (A) (A) (A) (A)
                 (A) (A) (A) (A) (A) (A) (A) (A) (A) (A) (A) (A)
                 (A) (A) (A) (A) (A) (A) (A) (A) (A) (A) (A) (A)
                 (A) (A) (A) (A) (A) (A) (A) (A) (A) (A) (A) (A)
                 (A) (A) (A) (A) (A) (A) (A) (A) (A) (A) (A) (A)
                 (A) (A) (A) (A) (A) (A) (A) (A) (A) (A) (A) (A)
                 (A) (A) (A) (A) (A) (A) (A) (A) (A) (A) (A) (A)
                 (A) (A) (A) (A) (A) (A) (A) (A) (A) (A) (A) (A)
                 (A) (A) (A) (A) (A) (A) (A) (A) (A) (A) (A) (A)
                 (A) (A) (A) (A) (A) (A) (A) (A) (A) (A) (A) (A)
                 (A) (A) (A) (A) (A) (A) (A) (A) (A) (A) (A) (A)
                 (A) (A) (A) (A) (A) (A) (A) (A) (A) (A) (A) (A)
                 (A) (A) (A) (A) (A) (A) (A) (A) (A) (A) (A) (A)
                 (A) (A) (A) (A) (A) (A) (A) (A) (A) (A) (A) (A)
                 (A) (A) (A) (A) (A) (A) (A) (A) (A) (A) (A) (A)
                 (A) (A) (A) (A) (A) (A) (A) (A) (A) (A) (A) (A)
                 (A) (A) (A) (A) (A) (A) (A) (A) (A) (A) (A) (A)
                 (A) (A) (A) (A) (A) (A) (A) (A) (A) (A) (A) (A)
                 (A) (A) (A) (A) (A) (A) (A) (A) (A) (A) (A) (A)
                 (A) (A) (A) (A) (A) (A) (A) (A) (A) (A) (A) (A)
                 (A) (A) (A) (A) (A) (A) (A) (A) (A) (A) (A) (A)
                 (A) (A) (A) (A) (A) (A) (A) (A) (A) (A) (A) (A)
                 (A) (A) (A) (A) (A) (A) (A) (A) (A) (A) (A) (A)
                 (A) (A) (A) (A) (A) (A) (A) (A) (A) (A)
 Beta  Orbitals:
       Occupied  (A) (A) (A) (A) (A) (A) (A) (A) (A) (A) (A) (A)
                 (A) (A) (A) (A) (A) (A) (A) (A) (A) (A) (A) (A)
                 (A) (A) (A) (A) (A) (A) (A) (A) (A) (A) (A) (A)
                 (A) (A) (A) (A) (A) (A) (A) (A) (A) (A) (A) (A)
                 (A) (A) (A) (A) (A) (A) (A) (A) (A) (A) (A) (A)
                 (A) (A) (A) (A) (A) (A) (A) (A) (A) (A) (A) (A)
                 (A) (A) (A) (A) (A) (A) (A) (A) (A) (A) (A) (A)
                 (A) (A) (A) (A) (A) (A) (A) (A) (A) (A) (A) (A)
                 (A) (A) (A) (A) (A) (A) (A) (A) (A) (A) (A) (A)
                 (A) (A) (A) (A) (A) (A) (A) (A) (A) (A) (A) (A)
                 (A) (A) (A) (A) (A) (A) (A) (A) (A) (A) (A) (A)
       Virtual   (A) (A) (A) (A) (A) (A) (A) (A) (A) (A) (A) (A)
                 (A) (A) (A) (A) (A) (A) (A) (A) (A) (A) (A) (A)
                 (A) (A) (A) (A) (A) (A) (A) (A) (A) (A) (A) (A)
                 (A) (A) (A) (A) (A) (A) (A) (A) (A) (A) (A) (A)
                 (A) (A) (A) (A) (A) (A) (A) (A) (A) (A) (A) (A)
                 (A) (A) (A) (A) (A) (A) (A) (A) (A) (A) (A) (A)
                 (A) (A) (A) (A) (A) (A) (A) (A) (A) (A) (A) (A)
                 (A) (A) (A) (A) (A) (A) (A) (A) (A) (A) (A) (A)
                 (A) (A) (A) (A) (A) (A) (A) (A) (A) (A) (A) (A)
                 (A) (A) (A) (A) (A) (A) (A) (A) (A) (A) (A) (A)
                 (A) (A) (A) (A) (A) (A) (A) (A) (A) (A) (A) (A)
                 (A) (A) (A) (A) (A) (A) (A) (A) (A) (A) (A) (A)
                 (A) (A) (A) (A) (A) (A) (A) (A) (A) (A) (A) (A)
                 (A) (A) (A) (A) (A) (A) (A) (A) (A) (A) (A) (A)
                 (A) (A) (A) (A) (A) (A) (A) (A) (A) (A) (A) (A)
                 (A) (A) (A) (A) (A) (A) (A) (A) (A) (A) (A) (A)
                 (A) (A) (A) (A) (A) (A) (A) (A) (A) (A) (A) (A)
                 (A) (A) (A) (A) (A) (A) (A) (A) (A) (A) (A) (A)
                 (A) (A) (A) (A) (A) (A) (A) (A) (A) (A) (A) (A)
                 (A) (A) (A) (A) (A) (A) (A) (A) (A) (A) (A) (A)
                 (A) (A) (A) (A) (A) (A) (A) (A) (A) (A) (A) (A)
                 (A) (A) (A) (A) (A) (A) (A) (A) (A) (A) (A) (A)
                 (A) (A) (A) (A) (A) (A) (A) (A) (A) (A) (A) (A)
                 (A) (A) (A) (A) (A) (A) (A) (A) (A) (A) (A) (A)
                 (A) (A) (A) (A) (A) (A) (A) (A) (A) (A) (A) (A)
                 (A) (A) (A) (A) (A) (A) (A) (A) (A) (A) (A) (A)
                 (A) (A) (A) (A) (A) (A) (A) (A) (A) (A) (A) (A)
                 (A) (A) (A) (A) (A) (A) (A) (A) (A) (A) (A) (A)
                 (A) (A) (A) (A) (A) (A) (A) (A) (A) (A) (A) (A)
                 (A) (A) (A) (A) (A) (A) (A) (A) (A) (A) (A) (A)
                 (A) (A) (A) (A) (A) (A) (A) (A) (A) (A) (A) (A)
                 (A) (A) (A) (A) (A) (A) (A) (A) (A) (A) (A) (A)
                 (A) (A) (A) (A) (A) (A) (A) (A) (A) (A) (A) (A)
                 (A) (A) (A) (A) (A) (A) (A) (A) (A) (A) (A) (A)
                 (A) (A) (A) (A) (A) (A) (A) (A) (A) (A) (A) (A)
                 (A) (A) (A) (A) (A) (A) (A) (A) (A) (A) (A) (A)
                 (A) (A) (A) (A) (A) (A) (A) (A) (A) (A) (A) (A)
                 (A) (A) (A) (A) (A) (A) (A) (A) (A) (A) (A) (A)
                 (A) (A) (A) (A) (A) (A) (A) (A) (A) (A) (A) (A)
                 (A) (A) (A) (A) (A) (A) (A) (A) (A) (A) (A) (A)
                 (A) (A) (A) (A) (A) (A) (A) (A) (A) (A) (A) (A)
                 (A) (A) (A) (A) (A) (A) (A) (A) (A) (A) (A) (A)
                 (A) (A) (A) (A) (A) (A) (A) (A) (A) (A) (A) (A)
                 (A) (A) (A) (A) (A) (A) (A) (A) (A) (A) (A) (A)
                 (A) (A) (A) (A) (A) (A) (A) (A) (A) (A) (A) (A)
                 (A) (A) (A) (A) (A) (A) (A) (A) (A) (A) (A) (A)
 The electronic state is 3-A.
 Alpha  occ. eigenvalues --  -77.08538 -77.08235 -19.17748 -19.06652 -19.04800
 Alpha  occ. eigenvalues --  -14.34082 -10.26776 -10.24064 -10.24029 -10.20959
 Alpha  occ. eigenvalues --  -10.20872 -10.20833 -10.20682 -10.20553 -10.19688
 Alpha  occ. eigenvalues --  -10.19683 -10.19607 -10.19560 -10.17644 -10.17495
 Alpha  occ. eigenvalues --  -10.17464 -10.17423 -10.17379 -10.17353 -10.17305
 Alpha  occ. eigenvalues --  -10.17288 -10.17151 -10.17137 -10.16996 -10.16496
 Alpha  occ. eigenvalues --   -6.57700  -6.57407  -4.74303  -4.74246  -4.74044
 Alpha  occ. eigenvalues --   -4.74013  -4.73952  -4.73750  -3.05945  -1.90604
 Alpha  occ. eigenvalues --   -1.90496  -1.88599  -1.07963  -0.95541  -0.88432
 Alpha  occ. eigenvalues --   -0.84937  -0.82408  -0.81843  -0.79957  -0.79918
 Alpha  occ. eigenvalues --   -0.79661  -0.79407  -0.73750  -0.70093  -0.68033
 Alpha  occ. eigenvalues --   -0.67910  -0.67832  -0.67550  -0.67067  -0.66993
 Alpha  occ. eigenvalues --   -0.66774  -0.66660  -0.63904  -0.63028  -0.59771
 Alpha  occ. eigenvalues --   -0.59487  -0.54455  -0.54240  -0.54082  -0.51634
 Alpha  occ. eigenvalues --   -0.51305  -0.50260  -0.49545  -0.47164  -0.46960
 Alpha  occ. eigenvalues --   -0.45796  -0.45458  -0.45041  -0.44750  -0.44653
 Alpha  occ. eigenvalues --   -0.44297  -0.44003  -0.43840  -0.43227  -0.43111
 Alpha  occ. eigenvalues --   -0.42832  -0.42617  -0.42268  -0.42128  -0.41635
 Alpha  occ. eigenvalues --   -0.41458  -0.41229  -0.40470  -0.40068  -0.39133
 Alpha  occ. eigenvalues --   -0.38892  -0.38720  -0.37798  -0.37482  -0.37295
 Alpha  occ. eigenvalues --   -0.37271  -0.37144  -0.36990  -0.36753  -0.36332
 Alpha  occ. eigenvalues --   -0.36229  -0.35820  -0.35535  -0.35479  -0.34886
 Alpha  occ. eigenvalues --   -0.34514  -0.34196  -0.33725  -0.33053  -0.32740
 Alpha  occ. eigenvalues --   -0.32709  -0.32352  -0.32196  -0.31627  -0.31172
 Alpha  occ. eigenvalues --   -0.30979  -0.30165  -0.29482  -0.29287  -0.28948
 Alpha  occ. eigenvalues --   -0.28572  -0.28025  -0.25431  -0.25187  -0.24934
 Alpha  occ. eigenvalues --   -0.23706  -0.21992  -0.20875  -0.18163
 Alpha virt. eigenvalues --   -0.04084  -0.03568  -0.02420   0.00313   0.01220
 Alpha virt. eigenvalues --    0.04333   0.04490   0.05334   0.05938   0.06213
 Alpha virt. eigenvalues --    0.07292   0.07436   0.07878   0.08175   0.08435
 Alpha virt. eigenvalues --    0.08613   0.09144   0.09663   0.10045   0.10341
 Alpha virt. eigenvalues --    0.10585   0.10886   0.11331   0.11853   0.12229
 Alpha virt. eigenvalues --    0.12303   0.12619   0.13340   0.13523   0.13567
 Alpha virt. eigenvalues --    0.13852   0.13984   0.14058   0.14808   0.14886
 Alpha virt. eigenvalues --    0.15214   0.15422   0.15999   0.16210   0.16581
 Alpha virt. eigenvalues --    0.16781   0.16920   0.17490   0.17679   0.17886
 Alpha virt. eigenvalues --    0.17972   0.18473   0.18759   0.19104   0.19684
 Alpha virt. eigenvalues --    0.20070   0.20169   0.20574   0.20730   0.20886
 Alpha virt. eigenvalues --    0.21091   0.21285   0.21526   0.21729   0.22059
 Alpha virt. eigenvalues --    0.22641   0.23051   0.23287   0.24254   0.24485
 Alpha virt. eigenvalues --    0.24785   0.25159   0.25487   0.25734   0.26141
 Alpha virt. eigenvalues --    0.26585   0.27459   0.27868   0.28667   0.29775
 Alpha virt. eigenvalues --    0.30777   0.31120   0.31510   0.31923   0.34411
 Alpha virt. eigenvalues --    0.35506   0.35732   0.36456   0.37761   0.38375
 Alpha virt. eigenvalues --    0.39455   0.39795   0.40431   0.40609   0.40809
 Alpha virt. eigenvalues --    0.41202   0.41585   0.42390   0.43010   0.43211
 Alpha virt. eigenvalues --    0.43554   0.44039   0.44807   0.45445   0.45727
 Alpha virt. eigenvalues --    0.46426   0.46762   0.47798   0.48303   0.48990
 Alpha virt. eigenvalues --    0.49121   0.49947   0.51543   0.51900   0.52419
 Alpha virt. eigenvalues --    0.52678   0.53279   0.53396   0.53921   0.54031
 Alpha virt. eigenvalues --    0.54481   0.55433   0.56165   0.56523   0.57375
 Alpha virt. eigenvalues --    0.58028   0.58131   0.58382   0.58973   0.59416
 Alpha virt. eigenvalues --    0.59675   0.60021   0.60475   0.61140   0.61304
 Alpha virt. eigenvalues --    0.61986   0.62357   0.62723   0.62935   0.63258
 Alpha virt. eigenvalues --    0.63486   0.63664   0.64518   0.64524   0.64833
 Alpha virt. eigenvalues --    0.65120   0.65305   0.65652   0.65795   0.65955
 Alpha virt. eigenvalues --    0.66157   0.66353   0.66754   0.66990   0.67151
 Alpha virt. eigenvalues --    0.67519   0.67819   0.68017   0.68353   0.68478
 Alpha virt. eigenvalues --    0.68711   0.68815   0.69113   0.69287   0.69305
 Alpha virt. eigenvalues --    0.69743   0.70481   0.70537   0.70783   0.71072
 Alpha virt. eigenvalues --    0.71101   0.71290   0.71426   0.72255   0.72426
 Alpha virt. eigenvalues --    0.72583   0.72887   0.73109   0.73263   0.73439
 Alpha virt. eigenvalues --    0.73539   0.73878   0.74344   0.74646   0.74849
 Alpha virt. eigenvalues --    0.75229   0.75558   0.75948   0.76194   0.76616
 Alpha virt. eigenvalues --    0.76919   0.77487   0.77938   0.78125   0.78522
 Alpha virt. eigenvalues --    0.78635   0.79134   0.79282   0.80285   0.80549
 Alpha virt. eigenvalues --    0.80816   0.81018   0.81589   0.81807   0.82067
 Alpha virt. eigenvalues --    0.82500   0.83157   0.83406   0.84352   0.84729
 Alpha virt. eigenvalues --    0.85352   0.85844   0.86478   0.87250   0.87717
 Alpha virt. eigenvalues --    0.88590   0.88934   0.89451   0.89928   0.90731
 Alpha virt. eigenvalues --    0.91337   0.91761   0.92989   0.94236   0.94977
 Alpha virt. eigenvalues --    0.95804   0.95885   0.97549   0.99223   0.99850
 Alpha virt. eigenvalues --    1.01741   1.02035   1.02758   1.03235   1.03574
 Alpha virt. eigenvalues --    1.04614   1.05223   1.06146   1.06466   1.07448
 Alpha virt. eigenvalues --    1.07698   1.08316   1.08970   1.09986   1.11219
 Alpha virt. eigenvalues --    1.12120   1.12259   1.12892   1.14505   1.14790
 Alpha virt. eigenvalues --    1.16036   1.16582   1.16814   1.18262   1.18537
 Alpha virt. eigenvalues --    1.18809   1.19794   1.20151   1.20913   1.21610
 Alpha virt. eigenvalues --    1.22251   1.23115   1.24058   1.24571   1.24609
 Alpha virt. eigenvalues --    1.25076   1.25861   1.27187   1.27279   1.28228
 Alpha virt. eigenvalues --    1.28653   1.29374   1.30090   1.30675   1.31282
 Alpha virt. eigenvalues --    1.31932   1.33116   1.34378   1.36498   1.37373
 Alpha virt. eigenvalues --    1.37694   1.39344   1.41560   1.43353   1.44317
 Alpha virt. eigenvalues --    1.45422   1.48103   1.48623   1.49416   1.49777
 Alpha virt. eigenvalues --    1.50911   1.51690   1.51939   1.52735   1.53095
 Alpha virt. eigenvalues --    1.53578   1.54166   1.54380   1.54838   1.55428
 Alpha virt. eigenvalues --    1.55937   1.56300   1.56697   1.57037   1.57720
 Alpha virt. eigenvalues --    1.58003   1.58493   1.58527   1.58874   1.59357
 Alpha virt. eigenvalues --    1.59419   1.60075   1.60795   1.61355   1.61555
 Alpha virt. eigenvalues --    1.62379   1.62588   1.63497   1.63760   1.64597
 Alpha virt. eigenvalues --    1.65270   1.65633   1.65975   1.66379   1.66502
 Alpha virt. eigenvalues --    1.67794   1.68483   1.68929   1.69491   1.70785
 Alpha virt. eigenvalues --    1.71642   1.72521   1.72753   1.73972   1.74690
 Alpha virt. eigenvalues --    1.76176   1.76614   1.76913   1.77165   1.77379
 Alpha virt. eigenvalues --    1.78167   1.78547   1.78886   1.78983   1.79213
 Alpha virt. eigenvalues --    1.79505   1.80083   1.80131   1.81029   1.81144
 Alpha virt. eigenvalues --    1.81510   1.82174   1.82285   1.82682   1.83371
 Alpha virt. eigenvalues --    1.83694   1.84241   1.84416   1.84540   1.85169
 Alpha virt. eigenvalues --    1.85251   1.85701   1.86025   1.86273   1.86918
 Alpha virt. eigenvalues --    1.87269   1.87631   1.87855   1.88056   1.88718
 Alpha virt. eigenvalues --    1.89132   1.90214   1.90520   1.90979   1.91504
 Alpha virt. eigenvalues --    1.92486   1.92656   1.93056   1.93266   1.93569
 Alpha virt. eigenvalues --    1.93753   1.93974   1.94247   1.94284   1.94672
 Alpha virt. eigenvalues --    1.95327   1.95732   1.95821   1.96040   1.96884
 Alpha virt. eigenvalues --    1.97254   1.98105   1.98425   1.98815   1.99126
 Alpha virt. eigenvalues --    1.99785   2.00536   2.00788   2.01011   2.01399
 Alpha virt. eigenvalues --    2.01908   2.02367   2.02488   2.03633   2.03718
 Alpha virt. eigenvalues --    2.04284   2.05020   2.06941   2.08078   2.09748
 Alpha virt. eigenvalues --    2.10696   2.11874   2.14915   2.15754   2.16060
 Alpha virt. eigenvalues --    2.16624   2.16771   2.17576   2.17731   2.18276
 Alpha virt. eigenvalues --    2.18518   2.18876   2.19070   2.19591   2.19957
 Alpha virt. eigenvalues --    2.20405   2.20775   2.21387   2.22179   2.22593
 Alpha virt. eigenvalues --    2.22653   2.23208   2.24020   2.24196   2.24830
 Alpha virt. eigenvalues --    2.25036   2.27127   2.27927   2.29119   2.29216
 Alpha virt. eigenvalues --    2.29968   2.34961   2.37943   2.38391   2.38845
 Alpha virt. eigenvalues --    2.39208   2.39899   2.40510   2.40795   2.41261
 Alpha virt. eigenvalues --    2.42042   2.42149   2.42452   2.42917   2.43170
 Alpha virt. eigenvalues --    2.44338   2.44780   2.45835   2.46955   2.47062
 Alpha virt. eigenvalues --    2.47601   2.48898   2.50170   2.51224   2.52156
 Alpha virt. eigenvalues --    2.55205   2.55500   2.55898   2.56214   2.56364
 Alpha virt. eigenvalues --    2.56430   2.56616   2.57453   2.58235   2.61283
 Alpha virt. eigenvalues --    2.62054   2.62372   2.62743   2.62898   2.63429
 Alpha virt. eigenvalues --    2.63654   2.63789   2.63980   2.64206   2.64779
 Alpha virt. eigenvalues --    2.64873   2.65218   2.65837   2.65861   2.67539
 Alpha virt. eigenvalues --    2.69154   2.72249   2.72524   2.72928   2.73214
 Alpha virt. eigenvalues --    2.73714   2.74092   2.74377   2.75607   2.80417
 Alpha virt. eigenvalues --    2.80869   2.81712   2.84172   2.86204   2.87068
 Alpha virt. eigenvalues --    2.87450   2.87686   2.88422   2.88867   2.89120
 Alpha virt. eigenvalues --    2.89243   2.89737   2.90852   2.91286   2.92849
 Alpha virt. eigenvalues --    2.93012   2.93544   2.94351   2.94869   2.95701
 Alpha virt. eigenvalues --    2.95817   2.96295   2.96437   2.96938   2.97078
 Alpha virt. eigenvalues --    2.97495   2.98172   2.98892   2.99611   2.99839
 Alpha virt. eigenvalues --    3.02067   3.02304   3.03952   3.04670   3.05119
 Alpha virt. eigenvalues --    3.05735   3.06376   3.06910   3.07719   3.08584
 Alpha virt. eigenvalues --    3.08860   3.09617   3.09934   3.11127   3.11994
 Alpha virt. eigenvalues --    3.12524   3.14275   3.18841   3.20011   3.36273
 Alpha virt. eigenvalues --    3.61919   3.73098   3.79743   3.87051  45.25465
  Beta  occ. eigenvalues --  -77.08505 -77.08199 -19.17876 -19.06642 -19.04379
  Beta  occ. eigenvalues --  -14.33777 -10.26940 -10.24076 -10.24041 -10.20928
  Beta  occ. eigenvalues --  -10.20866 -10.20841 -10.20658 -10.20542 -10.19673
  Beta  occ. eigenvalues --  -10.19669 -10.19606 -10.19558 -10.17644 -10.17492
  Beta  occ. eigenvalues --  -10.17464 -10.17417 -10.17379 -10.17347 -10.17299
  Beta  occ. eigenvalues --  -10.17289 -10.17149 -10.17137 -10.16997 -10.16497
  Beta  occ. eigenvalues --   -6.57660  -6.57365  -4.74275  -4.74223  -4.73984
  Beta  occ. eigenvalues --   -4.73961  -4.73927  -4.73660  -2.99890  -1.85723
  Beta  occ. eigenvalues --   -1.82762  -1.81077  -1.08193  -0.95282  -0.88397
  Beta  occ. eigenvalues --   -0.84002  -0.82359  -0.81789  -0.79917  -0.79846
  Beta  occ. eigenvalues --   -0.79638  -0.79384  -0.73699  -0.70049  -0.68016
  Beta  occ. eigenvalues --   -0.67904  -0.67814  -0.67547  -0.67063  -0.66983
  Beta  occ. eigenvalues --   -0.66763  -0.66658  -0.63778  -0.62917  -0.59666
  Beta  occ. eigenvalues --   -0.59367  -0.54540  -0.54345  -0.54053  -0.51579
  Beta  occ. eigenvalues --   -0.51226  -0.50166  -0.49497  -0.47111  -0.46945
  Beta  occ. eigenvalues --   -0.45704  -0.45402  -0.44924  -0.44682  -0.44623
  Beta  occ. eigenvalues --   -0.44293  -0.43973  -0.43824  -0.43309  -0.43111
  Beta  occ. eigenvalues --   -0.42804  -0.42650  -0.42287  -0.42119  -0.41687
  Beta  occ. eigenvalues --   -0.41467  -0.41230  -0.40189  -0.40018  -0.39109
  Beta  occ. eigenvalues --   -0.38863  -0.38694  -0.37783  -0.37465  -0.37270
  Beta  occ. eigenvalues --   -0.37252  -0.37140  -0.36960  -0.36717  -0.36272
  Beta  occ. eigenvalues --   -0.35974  -0.35682  -0.35529  -0.35463  -0.34763
  Beta  occ. eigenvalues --   -0.34467  -0.34032  -0.33638  -0.33040  -0.32725
  Beta  occ. eigenvalues --   -0.32482  -0.32301  -0.32117  -0.31516  -0.30416
  Beta  occ. eigenvalues --   -0.29565  -0.29273  -0.28960  -0.27953  -0.27577
  Beta  occ. eigenvalues --   -0.27429  -0.26113  -0.25311  -0.23023  -0.22613
  Beta  occ. eigenvalues --   -0.22177  -0.20459
  Beta virt. eigenvalues --   -0.09495  -0.06203  -0.03802  -0.02425  -0.01225
  Beta virt. eigenvalues --    0.00926   0.01554   0.04420   0.04852   0.05680
  Beta virt. eigenvalues --    0.06220   0.06471   0.07337   0.07580   0.07961
  Beta virt. eigenvalues --    0.08222   0.08549   0.08669   0.09231   0.09694
  Beta virt. eigenvalues --    0.10076   0.10389   0.10618   0.10939   0.11358
  Beta virt. eigenvalues --    0.11868   0.12294   0.12327   0.12734   0.13405
  Beta virt. eigenvalues --    0.13598   0.13634   0.13904   0.14011   0.14102
  Beta virt. eigenvalues --    0.14857   0.14908   0.15238   0.15473   0.16083
  Beta virt. eigenvalues --    0.16280   0.16629   0.16889   0.16985   0.17515
  Beta virt. eigenvalues --    0.17702   0.17925   0.18041   0.18515   0.18774
  Beta virt. eigenvalues --    0.19191   0.19788   0.20118   0.20223   0.20661
  Beta virt. eigenvalues --    0.20813   0.21002   0.21152   0.21313   0.21580
  Beta virt. eigenvalues --    0.21778   0.22147   0.22675   0.23104   0.23506
  Beta virt. eigenvalues --    0.24320   0.24578   0.24863   0.25236   0.25736
  Beta virt. eigenvalues --    0.25868   0.26190   0.26722   0.27528   0.27978
  Beta virt. eigenvalues --    0.28852   0.30046   0.30883   0.31235   0.31644
  Beta virt. eigenvalues --    0.32412   0.34560   0.35763   0.35999   0.36751
  Beta virt. eigenvalues --    0.37981   0.38804   0.39510   0.39815   0.40539
  Beta virt. eigenvalues --    0.40655   0.40916   0.41316   0.41701   0.42566
  Beta virt. eigenvalues --    0.43111   0.43304   0.43693   0.44135   0.44897
  Beta virt. eigenvalues --    0.45562   0.45779   0.46511   0.46890   0.48022
  Beta virt. eigenvalues --    0.48602   0.49086   0.49362   0.50070   0.51709
  Beta virt. eigenvalues --    0.52109   0.52517   0.52878   0.53355   0.53457
  Beta virt. eigenvalues --    0.54086   0.54219   0.54557   0.55528   0.56227
  Beta virt. eigenvalues --    0.56637   0.57460   0.58198   0.58243   0.58511
  Beta virt. eigenvalues --    0.59054   0.59487   0.59857   0.60076   0.60522
  Beta virt. eigenvalues --    0.61223   0.61352   0.62082   0.62581   0.62818
  Beta virt. eigenvalues --    0.62999   0.63311   0.63560   0.63723   0.64573
  Beta virt. eigenvalues --    0.64589   0.64858   0.65183   0.65344   0.65725
  Beta virt. eigenvalues --    0.65842   0.65995   0.66209   0.66402   0.66787
  Beta virt. eigenvalues --    0.67098   0.67183   0.67569   0.67862   0.68130
  Beta virt. eigenvalues --    0.68448   0.68516   0.68773   0.68875   0.69203
  Beta virt. eigenvalues --    0.69326   0.69368   0.69794   0.70515   0.70573
  Beta virt. eigenvalues --    0.70809   0.71126   0.71221   0.71335   0.71464
  Beta virt. eigenvalues --    0.72289   0.72522   0.72637   0.72953   0.73121
  Beta virt. eigenvalues --    0.73322   0.73471   0.73599   0.73957   0.74405
  Beta virt. eigenvalues --    0.74754   0.74967   0.75270   0.75664   0.76004
  Beta virt. eigenvalues --    0.76277   0.76694   0.77023   0.77563   0.78033
  Beta virt. eigenvalues --    0.78176   0.78576   0.78718   0.79193   0.79412
  Beta virt. eigenvalues --    0.80345   0.80601   0.81016   0.81129   0.81632
  Beta virt. eigenvalues --    0.81926   0.82141   0.82551   0.83191   0.83544
  Beta virt. eigenvalues --    0.84397   0.84854   0.85419   0.85982   0.86619
  Beta virt. eigenvalues --    0.87371   0.87881   0.88707   0.89129   0.89608
  Beta virt. eigenvalues --    0.90062   0.90928   0.91391   0.91857   0.93103
  Beta virt. eigenvalues --    0.94406   0.95065   0.95911   0.96062   0.97731
  Beta virt. eigenvalues --    0.99342   1.00265   1.01893   1.02251   1.02842
  Beta virt. eigenvalues --    1.03416   1.03788   1.04783   1.05282   1.06242
  Beta virt. eigenvalues --    1.06740   1.07552   1.07899   1.08452   1.09119
  Beta virt. eigenvalues --    1.10190   1.11305   1.12258   1.12391   1.12947
  Beta virt. eigenvalues --    1.14629   1.14999   1.16132   1.16604   1.16868
  Beta virt. eigenvalues --    1.18449   1.18646   1.18932   1.19891   1.20250
  Beta virt. eigenvalues --    1.20971   1.21739   1.22310   1.23197   1.24123
  Beta virt. eigenvalues --    1.24633   1.24663   1.25134   1.25911   1.27255
  Beta virt. eigenvalues --    1.27514   1.28295   1.28816   1.29492   1.30235
  Beta virt. eigenvalues --    1.30804   1.31313   1.31984   1.33204   1.34469
  Beta virt. eigenvalues --    1.36706   1.37460   1.37828   1.39498   1.41735
  Beta virt. eigenvalues --    1.43508   1.44437   1.45682   1.48219   1.48791
  Beta virt. eigenvalues --    1.49500   1.49828   1.51029   1.51821   1.52019
  Beta virt. eigenvalues --    1.52808   1.53152   1.53631   1.54194   1.54467
  Beta virt. eigenvalues --    1.54857   1.55498   1.55991   1.56340   1.56725
  Beta virt. eigenvalues --    1.57090   1.57775   1.58139   1.58549   1.58562
  Beta virt. eigenvalues --    1.58906   1.59384   1.59456   1.60123   1.60855
  Beta virt. eigenvalues --    1.61395   1.61745   1.62677   1.62704   1.63612
  Beta virt. eigenvalues --    1.63948   1.64693   1.65367   1.65713   1.66138
  Beta virt. eigenvalues --    1.66438   1.66910   1.67913   1.68763   1.69475
  Beta virt. eigenvalues --    1.69896   1.70822   1.71797   1.72598   1.72802
  Beta virt. eigenvalues --    1.74016   1.74750   1.76259   1.76736   1.76970
  Beta virt. eigenvalues --    1.77267   1.77417   1.78228   1.78584   1.78942
  Beta virt. eigenvalues --    1.79044   1.79359   1.79575   1.80185   1.80396
  Beta virt. eigenvalues --    1.81116   1.81279   1.81598   1.82338   1.82401
  Beta virt. eigenvalues --    1.82721   1.83703   1.83986   1.84413   1.84492
  Beta virt. eigenvalues --    1.84591   1.85326   1.85508   1.85740   1.86137
  Beta virt. eigenvalues --    1.86342   1.87031   1.87420   1.87979   1.88460
  Beta virt. eigenvalues --    1.89419   1.90346   1.90781   1.91292   1.91690
  Beta virt. eigenvalues --    1.91992   1.92570   1.92843   1.93084   1.93481
  Beta virt. eigenvalues --    1.93714   1.93923   1.94185   1.94243   1.94730
  Beta virt. eigenvalues --    1.94986   1.95125   1.95796   1.95888   1.96432
  Beta virt. eigenvalues --    1.96913   1.97054   1.97907   1.98311   1.98890
  Beta virt. eigenvalues --    1.99034   1.99826   2.00051   2.00647   2.00927
  Beta virt. eigenvalues --    2.01308   2.01793   2.02456   2.02521   2.03765
  Beta virt. eigenvalues --    2.03867   2.04286   2.04458   2.06705   2.08427
  Beta virt. eigenvalues --    2.09352   2.10046   2.11526   2.12286   2.15091
  Beta virt. eigenvalues --    2.15793   2.16106   2.16665   2.16871   2.17618
  Beta virt. eigenvalues --    2.17842   2.18305   2.18556   2.18960   2.19133
  Beta virt. eigenvalues --    2.19716   2.20018   2.20473   2.20813   2.21465
  Beta virt. eigenvalues --    2.22253   2.22672   2.22757   2.23240   2.24105
  Beta virt. eigenvalues --    2.24283   2.24909   2.25169   2.27258   2.28097
  Beta virt. eigenvalues --    2.29422   2.29716   2.30836   2.35009   2.38013
  Beta virt. eigenvalues --    2.38452   2.38862   2.39235   2.39954   2.40561
  Beta virt. eigenvalues --    2.40828   2.41296   2.42076   2.42178   2.42491
  Beta virt. eigenvalues --    2.42929   2.43213   2.44379   2.44895   2.45850
  Beta virt. eigenvalues --    2.47006   2.47110   2.47625   2.48914   2.50218
  Beta virt. eigenvalues --    2.51257   2.52175   2.55224   2.55519   2.55931
  Beta virt. eigenvalues --    2.56237   2.56386   2.56459   2.56641   2.57470
  Beta virt. eigenvalues --    2.58251   2.61297   2.62010   2.62352   2.62752
  Beta virt. eigenvalues --    2.62915   2.63438   2.63660   2.63824   2.64002
  Beta virt. eigenvalues --    2.64204   2.64481   2.64838   2.65238   2.65757
  Beta virt. eigenvalues --    2.66030   2.67440   2.69216   2.72407   2.72548
  Beta virt. eigenvalues --    2.72942   2.73284   2.73858   2.74187   2.75201
  Beta virt. eigenvalues --    2.75886   2.80576   2.81468   2.82116   2.84202
  Beta virt. eigenvalues --    2.86245   2.87085   2.87476   2.87700   2.88453
  Beta virt. eigenvalues --    2.88879   2.89139   2.89257   2.89749   2.90862
  Beta virt. eigenvalues --    2.91294   2.92867   2.93023   2.93608   2.94368
  Beta virt. eigenvalues --    2.94909   2.95734   2.95834   2.96322   2.96549
  Beta virt. eigenvalues --    2.96947   2.97210   2.97560   2.98201   2.98903
  Beta virt. eigenvalues --    2.99647   2.99927   3.02077   3.02315   3.04027
  Beta virt. eigenvalues --    3.04970   3.05397   3.05927   3.06716   3.07058
  Beta virt. eigenvalues --    3.07817   3.08630   3.08882   3.09631   3.09941
  Beta virt. eigenvalues --    3.11135   3.12003   3.12548   3.14419   3.18610
  Beta virt. eigenvalues --    3.19818   3.36634   3.62053   3.73028   3.80126
  Beta virt. eigenvalues --    3.87098  45.12351
          Condensed to atoms (all electrons):
          Atomic-Atomic Spin Densities.
 Mulliken charges and spin densities:
               1          2
     1  P    0.274817   0.074367
     2  N   -0.120718   0.079783
     3  C    0.020085   0.004039
     4  H    0.064505  -0.000229
     5  H    0.093680  -0.000128
     6  O   -0.543366  -0.000585
     7  P    0.277068   0.080714
     8  C   -0.045207  -0.006570
     9  C   -0.000500   0.006503
    10  H    0.011197   0.001173
    11  C    0.067530  -0.005960
    12  H    0.024011   0.000171
    13  C   -0.003648   0.006512
    14  H    0.010731   0.001217
    15  C   -0.035773  -0.006581
    16  C    0.013736   0.005163
    17  H    0.066548  -0.000157
    18  H    0.094057  -0.000237
    19  Ru  -0.016080   1.717367
    20  H    0.174717   0.001177
    21  C   -0.381804   0.003559
    22  C   -0.390534   0.008979
    23  C   -0.388651   0.011781
    24  C   -0.394552   0.001549
    25  C    0.072698  -0.000505
    26  H    0.025636   0.000053
    27  H    0.042028   0.001515
    28  H    0.018402  -0.000119
    29  C    0.082940   0.000208
    30  H    0.014756  -0.000065
    31  H    0.032163   0.001692
    32  H    0.012187  -0.000006
    33  C    0.077563   0.000553
    34  H    0.014199   0.001197
    35  H    0.037638  -0.000003
    36  H    0.027081   0.000023
    37  C    0.080256   0.001496
    38  H    0.013017  -0.000034
    39  H    0.017179   0.002422
    40  H    0.025824  -0.000067
    41  C    0.073023  -0.000015
    42  H    0.016214   0.000172
    43  H    0.036777   0.000013
    44  H    0.038169   0.000993
    45  C    0.057906   0.000853
    46  H    0.023913  -0.001182
    47  H    0.035814   0.000138
    48  H    0.020212  -0.000129
    49  C    0.074501   0.000207
    50  H    0.007124  -0.000122
    51  H    0.016712   0.000186
    52  H    0.005378   0.000022
    53  C    0.078690   0.001213
    54  H    0.011820   0.001442
    55  H    0.034376  -0.000026
    56  H    0.026992  -0.000061
    57  C    0.070758  -0.000577
    58  H    0.023751   0.000027
    59  H    0.027326   0.000564
    60  H    0.012730  -0.000013
    61  C    0.076670  -0.000063
    62  H    0.043227   0.001214
    63  H    0.022618   0.000054
    64  H    0.014365  -0.000250
    65  C    0.080495   0.001243
    66  H    0.010958   0.000022
    67  H    0.015115   0.002175
    68  H    0.023520  -0.000066
    69  C    0.069816  -0.000152
    70  H    0.014057   0.000044
    71  H    0.037677   0.000041
    72  H    0.039579   0.001236
    73  O   -0.668189   0.134451
    74  C    0.051652  -0.096396
    75  H    0.158424   0.001546
    76  O   -0.147584  -0.040769
 Sum of Mulliken charges =  -0.00000   2.00000
 Mulliken charges and spin densities with hydrogens summed into heavy atoms:
               1          2
     1  P    0.274817   0.074367
     2  N   -0.120718   0.079783
     3  C    0.178270   0.003682
     6  O   -0.368649   0.000592
     7  P    0.277068   0.080714
     8  C   -0.045207  -0.006570
     9  C    0.010697   0.007676
    11  C    0.091541  -0.005789
    13  C    0.007083   0.007729
    15  C   -0.035773  -0.006581
    16  C    0.174340   0.004769
    19  Ru  -0.016080   1.717367
    21  C   -0.381804   0.003559
    22  C   -0.390534   0.008979
    23  C   -0.388651   0.011781
    24  C   -0.394552   0.001549
    25  C    0.158764   0.000944
    29  C    0.142046   0.001829
    33  C    0.156481   0.001769
    37  C    0.136276   0.003818
    41  C    0.164183   0.001163
    45  C    0.137846  -0.000319
    49  C    0.103715   0.000292
    53  C    0.151878   0.002567
    57  C    0.134565   0.000000
    61  C    0.156881   0.000955
    65  C    0.130087   0.003374
    69  C    0.161129   0.001169
    73  O   -0.509765   0.135997
    74  C    0.051652  -0.096396
    76  O   -0.147584  -0.040769
 Electronic spatial extent (au):  <R**2>=          13896.1660
 Charge=             -0.0000 electrons
 Dipole moment (field-independent basis, Debye):
    X=              2.1646    Y=             17.5961    Z=              0.3242  Tot=             17.7317
 Quadrupole moment (field-independent basis, Debye-Ang):
   XX=           -167.9979   YY=           -241.4851   ZZ=           -230.1437
   XY=             -1.9999   XZ=            -12.0108   YZ=              3.4881
 Traceless Quadrupole moment (field-independent basis, Debye-Ang):
   XX=             45.2110   YY=            -28.2762   ZZ=            -16.9348
   XY=             -1.9999   XZ=            -12.0108   YZ=              3.4881
 Octapole moment (field-independent basis, Debye-Ang**2):
  XXX=             15.4481  YYY=            209.1967  ZZZ=            -16.7387  XYY=              4.2281
  XXY=            -11.5523  XXZ=             -2.0698  XZZ=             14.6718  YZZ=             -7.7809
  YYZ=            -10.8701  XYZ=              5.8858
 Hexadecapole moment (field-independent basis, Debye-Ang**3):
 XXXX=         -10363.7148 YYYY=          -4716.9320 ZZZZ=          -3409.9753 XXXY=            -11.1739
 XXXZ=            -64.9621 YYYX=              6.1156 YYYZ=             51.3148 ZZZX=            -44.3683
 ZZZY=             41.4440 XXYY=          -2493.3473 XXZZ=          -2271.5734 YYZZ=          -1320.2081
 XXYZ=              4.2423 YYXZ=            -79.5164 ZZXY=            -16.8660
 N-N= 4.434321456432D+03 E-N=-1.352166576076D+04  KE= 1.921276353356D+03
                          Isotropic Fermi Contact Couplings
        Atom                 a.u.       MegaHertz       Gauss      10(-4) cm-1
     1  P(31)              0.08914      80.72293      28.80395      26.92627
     2  N(14)              0.19030      30.74421      10.97030      10.25517
     3  C(13)             -0.00446      -2.50500      -0.89385      -0.83558
     4  H(1)               0.00000       0.00488       0.00174       0.00163
     5  H(1)              -0.00009      -0.19298      -0.06886      -0.06437
     6  O(17)              0.00633      -1.91928      -0.68485      -0.64020
     7  P(31)              0.09107      82.46821      29.42671      27.50843
     8  C(13)             -0.00552      -3.10017      -1.10622      -1.03411
     9  C(13)              0.00689       3.87042       1.38106       1.29103
    10  H(1)               0.00024       0.52689       0.18801       0.17575
    11  C(13)             -0.00127      -0.71476      -0.25504      -0.23842
    12  H(1)               0.00006       0.14330       0.05113       0.04780
    13  C(13)              0.00690       3.87767       1.38365       1.29345
    14  H(1)               0.00024       0.54534       0.19459       0.18190
    15  C(13)             -0.00568      -3.19167      -1.13887      -1.06463
    16  C(13)             -0.00420      -2.35975      -0.84202      -0.78713
    17  H(1)               0.00002       0.04343       0.01550       0.01449
    18  H(1)              -0.00016      -0.35990      -0.12842      -0.12005
    19  Ru(99)            -0.00001       0.00077       0.00027       0.00026
    20  H(1)               0.00082       1.83040       0.65313       0.61056
    21  C(13)              0.00405       2.27379       0.81134       0.75845
    22  C(13)              0.00894       5.02457       1.79289       1.67602
    23  C(13)              0.01174       6.59786       2.35428       2.20081
    24  C(13)              0.00253       1.42364       0.50799       0.47487
    25  C(13)             -0.00051      -0.28805      -0.10278      -0.09608
    26  H(1)               0.00000       0.00246       0.00088       0.00082
    27  H(1)               0.00002       0.04954       0.01768       0.01652
    28  H(1)              -0.00004      -0.08045      -0.02871      -0.02683
    29  C(13)              0.00127       0.71366       0.25465       0.23805
    30  H(1)              -0.00001      -0.02671      -0.00953      -0.00891
    31  H(1)              -0.00002      -0.05100      -0.01820      -0.01701
    32  H(1)              -0.00001      -0.01221      -0.00436      -0.00407
    33  C(13)              0.00179       1.00759       0.35953       0.33610
    34  H(1)               0.00040       0.89161       0.31815       0.29741
    35  H(1)               0.00001       0.02514       0.00897       0.00839
    36  H(1)               0.00004       0.07842       0.02798       0.02616
    37  C(13)              0.00323       1.81751       0.64853       0.60626
    38  H(1)               0.00002       0.05294       0.01889       0.01766
    39  H(1)               0.00085       1.89973       0.67787       0.63368
    40  H(1)               0.00001       0.02204       0.00787       0.00735
    41  C(13)             -0.00043      -0.24061      -0.08586      -0.08026
    42  H(1)               0.00005       0.10533       0.03759       0.03514
    43  H(1)               0.00000       0.00259       0.00092       0.00086
    44  H(1)              -0.00002      -0.05064      -0.01807      -0.01689
    45  C(13)             -0.00024      -0.13582      -0.04846      -0.04531
    46  H(1)               0.00001       0.02585       0.00922       0.00862
    47  H(1)               0.00004       0.09669       0.03450       0.03225
    48  H(1)              -0.00003      -0.07549      -0.02694      -0.02518
    49  C(13)              0.00000       0.00000       0.00000       0.00000
    50  H(1)              -0.00003      -0.06587      -0.02350      -0.02197
    51  H(1)               0.00000       0.00901       0.00321       0.00300
    52  H(1)               0.00001       0.02146       0.00766       0.00716
    53  C(13)              0.00310       1.74281       0.62188       0.58134
    54  H(1)               0.00045       1.00665       0.35920       0.33578
    55  H(1)               0.00000       0.00437       0.00156       0.00146
    56  H(1)               0.00000       0.00140       0.00050       0.00047
    57  C(13)             -0.00067      -0.37516      -0.13387      -0.12514
    58  H(1)              -0.00001      -0.02914      -0.01040      -0.00972
    59  H(1)               0.00005       0.11509       0.04107       0.03839
    60  H(1)               0.00000       0.00744       0.00265       0.00248
    61  C(13)              0.00095       0.53543       0.19105       0.17860
    62  H(1)              -0.00002      -0.05305      -0.01893      -0.01770
    63  H(1)               0.00000       0.01003       0.00358       0.00335
    64  H(1)              -0.00008      -0.18758      -0.06693      -0.06257
    65  C(13)              0.00285       1.60283       0.57193       0.53465
    66  H(1)               0.00004       0.09087       0.03242       0.03031
    67  H(1)               0.00079       1.76479       0.62972       0.58867
    68  H(1)               0.00001       0.01846       0.00659       0.00616
    69  C(13)             -0.00034      -0.18939      -0.06758      -0.06317
    70  H(1)               0.00002       0.03613       0.01289       0.01205
    71  H(1)               0.00001       0.02801       0.01000       0.00934
    72  H(1)              -0.00003      -0.06349      -0.02266      -0.02118
    73  O(17)              0.11027     -33.42223     -11.92588     -11.14846
    74  C(13)             -0.05497     -30.90099     -11.02624     -10.30746
    75  H(1)              -0.00175      -3.90324      -1.39277      -1.30198
    76  O(17)             -0.01584       4.80164       1.71335       1.60166
 --------------------------------------------------------
       Center         ----  Spin Dipole Couplings  ----
                      3XX-RR        3YY-RR        3ZZ-RR
 --------------------------------------------------------
     1   Atom        0.066636      0.007767     -0.074403
     2   Atom       -0.122505      0.226455     -0.103950
     3   Atom        0.002423      0.007679     -0.010102
     4   Atom        0.001731      0.001548     -0.003279
     5   Atom       -0.000565      0.000104      0.000461
     6   Atom        0.029225     -0.005146     -0.024079
     7   Atom        0.071018      0.013658     -0.084676
     8   Atom        0.003985      0.011336     -0.015321
     9   Atom       -0.005062      0.008133     -0.003071
    10   Atom       -0.000766      0.002569     -0.001803
    11   Atom       -0.000976      0.007090     -0.006114
    12   Atom       -0.000857      0.002052     -0.001195
    13   Atom       -0.005157      0.008136     -0.002979
    14   Atom       -0.000858      0.002565     -0.001708
    15   Atom        0.001211      0.011405     -0.012617
    16   Atom        0.001549      0.008184     -0.009733
    17   Atom        0.001657      0.001629     -0.003285
    18   Atom       -0.000832     -0.000124      0.000956
    19   Atom        0.195963      0.362745     -0.558708
    20   Atom       -0.011645     -0.011562      0.023207
    21   Atom        0.004285     -0.004381      0.000095
    22   Atom        0.011826     -0.008635     -0.003191
    23   Atom        0.015208     -0.009608     -0.005600
    24   Atom        0.003624     -0.003578     -0.000046
    25   Atom       -0.000291     -0.000197      0.000489
    26   Atom       -0.000312      0.001901     -0.001590
    27   Atom       -0.003708     -0.000896      0.004604
    28   Atom       -0.000450     -0.000582      0.001032
    29   Atom        0.002652     -0.003855      0.001202
    30   Atom        0.000281     -0.001937      0.001657
    31   Atom        0.000332     -0.004827      0.004495
    32   Atom        0.002843     -0.002330     -0.000513
    33   Atom        0.003922     -0.001373     -0.002549
    34   Atom        0.001173     -0.000757     -0.000415
    35   Atom        0.003008     -0.001487     -0.001521
    36   Atom        0.001781      0.000001     -0.001782
    37   Atom        0.005048     -0.003484     -0.001564
    38   Atom        0.003203     -0.001366     -0.001838
    39   Atom        0.002111     -0.001205     -0.000905
    40   Atom        0.001709     -0.001328     -0.000382
    41   Atom        0.005488     -0.001740     -0.003748
    42   Atom        0.003013     -0.000979     -0.002034
    43   Atom        0.004191     -0.001988     -0.002203
    44   Atom        0.006531     -0.001385     -0.005145
    45   Atom        0.002606     -0.004697      0.002091
    46   Atom        0.002395     -0.003472      0.001077
    47   Atom        0.000427     -0.004878      0.004451
    48   Atom        0.001414     -0.001958      0.000544
    49   Atom        0.002660     -0.004029      0.001368
    50   Atom        0.000908     -0.002156      0.001248
    51   Atom        0.001125     -0.006298      0.005173
    52   Atom        0.003659     -0.002739     -0.000920
    53   Atom        0.005351     -0.001951     -0.003400
    54   Atom        0.001365     -0.000913     -0.000451
    55   Atom        0.003317     -0.001641     -0.001676
    56   Atom        0.001941     -0.000105     -0.001836
    57   Atom       -0.000070      0.000044      0.000027
    58   Atom       -0.000198      0.002061     -0.001863
    59   Atom       -0.003848      0.000292      0.003556
    60   Atom       -0.000307     -0.000476      0.000782
    61   Atom        0.001320     -0.004247      0.002928
    62   Atom        0.000473     -0.003777      0.003303
    63   Atom       -0.001175     -0.003943      0.005118
    64   Atom        0.000854     -0.001865      0.001010
    65   Atom        0.004642     -0.003263     -0.001379
    66   Atom        0.003129     -0.001412     -0.001716
    67   Atom        0.001877     -0.001160     -0.000717
    68   Atom        0.001471     -0.001216     -0.000255
    69   Atom        0.005596     -0.001823     -0.003772
    70   Atom        0.002850     -0.000996     -0.001854
    71   Atom        0.004354     -0.001990     -0.002363
    72   Atom        0.006719     -0.001289     -0.005430
    73   Atom       -0.017111      0.314653     -0.297541
    74   Atom       -0.038606     -0.054194      0.092800
    75   Atom       -0.025506      0.003629      0.021877
    76   Atom       -0.033157     -0.073121      0.106278
 --------------------------------------------------------
                        XY            XZ            YZ
 --------------------------------------------------------
     1   Atom        0.123714     -0.034353     -0.034647
     2   Atom        0.006328      0.011439      0.008534
     3   Atom        0.002407     -0.003488     -0.002112
     4   Atom        0.004047     -0.001708     -0.001763
     5   Atom        0.004791     -0.005531     -0.006155
     6   Atom        0.025149     -0.004459     -0.009729
     7   Atom       -0.134465     -0.035179      0.032124
     8   Atom        0.011584     -0.008909     -0.003949
     9   Atom        0.001866      0.001523     -0.000722
    10   Atom        0.002050     -0.000527     -0.000920
    11   Atom        0.000180     -0.003258      0.000337
    12   Atom        0.000061     -0.000171      0.000117
    13   Atom       -0.001721      0.001439      0.000720
    14   Atom       -0.001918     -0.000591      0.001142
    15   Atom       -0.010324     -0.011339      0.006787
    16   Atom       -0.001805     -0.003777      0.002618
    17   Atom       -0.004014     -0.001760      0.001882
    18   Atom       -0.003997     -0.005261      0.006120
    19   Atom        0.000889     -0.008315      0.067172
    20   Atom       -0.002387     -0.010914      0.005818
    21   Atom       -0.007051      0.009796     -0.006044
    22   Atom        0.006617     -0.014978     -0.005594
    23   Atom       -0.009023     -0.016062      0.006650
    24   Atom        0.005613      0.008152      0.004851
    25   Atom        0.003296      0.004055      0.004213
    26   Atom        0.003345      0.002339      0.003153
    27   Atom        0.002842      0.005460      0.008162
    28   Atom        0.001417      0.002280      0.002314
    29   Atom        0.000619      0.006054      0.000390
    30   Atom        0.000404      0.003078      0.000475
    31   Atom       -0.000555      0.008604     -0.001567
    32   Atom       -0.000539      0.003497     -0.000420
    33   Atom        0.003299      0.001974      0.000948
    34   Atom        0.001329      0.001445      0.000815
    35   Atom        0.001124      0.001104      0.000412
    36   Atom        0.002546      0.000723      0.000433
    37   Atom        0.003046     -0.005151     -0.001828
    38   Atom        0.001702     -0.000915     -0.000039
    39   Atom        0.000008     -0.001951      0.000102
    40   Atom        0.001458     -0.002645     -0.001412
    41   Atom       -0.002378     -0.000711     -0.000326
    42   Atom       -0.001985     -0.001085      0.000334
    43   Atom       -0.001166      0.000884     -0.000267
    44   Atom       -0.005263      0.000991     -0.000627
    45   Atom       -0.001908     -0.007189      0.001506
    46   Atom       -0.005598     -0.009972      0.006357
    47   Atom        0.000225     -0.006676     -0.000124
    48   Atom       -0.001192     -0.003498      0.001375
    49   Atom       -0.000348      0.006017     -0.000067
    50   Atom       -0.000477      0.003281     -0.000357
    51   Atom        0.000725      0.009317      0.001232
    52   Atom        0.000984      0.004000      0.000773
    53   Atom       -0.004015      0.001993     -0.000881
    54   Atom       -0.001426      0.001484     -0.000813
    55   Atom       -0.000961      0.000990     -0.000372
    56   Atom       -0.002647      0.000604     -0.000263
    57   Atom       -0.003774      0.004082     -0.004216
    58   Atom       -0.003555      0.002214     -0.002965
    59   Atom       -0.003930      0.005514     -0.008060
    60   Atom       -0.001762      0.002345     -0.002379
    61   Atom        0.001472     -0.007367     -0.001487
    62   Atom        0.003870     -0.009733     -0.006056
    63   Atom       -0.000213     -0.005859      0.000348
    64   Atom        0.000864     -0.003360     -0.001218
    65   Atom       -0.002707     -0.004903      0.001620
    66   Atom       -0.001585     -0.001049      0.000094
    67   Atom       -0.000032     -0.001975     -0.000084
    68   Atom       -0.001368     -0.002644      0.001383
    69   Atom        0.002255     -0.001381     -0.000044
    70   Atom        0.001884     -0.001424     -0.000461
    71   Atom        0.001275      0.000521      0.000219
    72   Atom        0.005562     -0.000123      0.000148
    73   Atom        0.012788     -0.017670      0.044715
    74   Atom       -0.002805      0.005509     -0.005062
    75   Atom        0.000534      0.002937      0.015059
    76   Atom       -0.001316      0.007727     -0.007260
 --------------------------------------------------------


 ---------------------------------------------------------------------------------
              Anisotropic Spin Dipole Couplings in Principal Axis System
 ---------------------------------------------------------------------------------

       Atom             a.u.   MegaHertz   Gauss  10(-4) cm-1        Axes

              Baa    -0.0935   -20.203    -7.209    -6.739 -0.4563  0.7312  0.5071
     1 P(31)  Bbb    -0.0804   -17.375    -6.200    -5.796  0.4503 -0.3018  0.8403
              Bcc     0.1738    37.578    13.409    12.535  0.7675  0.6118 -0.1916
 
              Baa    -0.1280    -4.935    -1.761    -1.646  0.9036 -0.0058 -0.4283
     2 N(14)  Bbb    -0.0988    -3.812    -1.360    -1.271  0.4279 -0.0320  0.9033
              Bcc     0.2268     8.747     3.121     2.918  0.0190  0.9995  0.0264
 
              Baa    -0.0111    -1.492    -0.533    -0.498  0.2355  0.0787  0.9687
     3 C(13)  Bbb     0.0019     0.261     0.093     0.087  0.8820 -0.4359 -0.1790
              Bcc     0.0092     1.232     0.440     0.411  0.4082  0.8965 -0.1720
 
              Baa    -0.0039    -2.086    -0.744    -0.696  0.1467  0.2039  0.9679
     4 H(1)   Bbb    -0.0024    -1.284    -0.458    -0.428  0.7074 -0.7056  0.0414
              Bcc     0.0063     3.369     1.202     1.124  0.6914  0.6786 -0.2478
 
              Baa    -0.0060    -3.214    -1.147    -1.072  0.3281  0.5294  0.7824
     5 H(1)   Bbb    -0.0050    -2.678    -0.956    -0.893  0.7799 -0.6191  0.0918
              Bcc     0.0110     5.892     2.102     1.965 -0.5329 -0.5801  0.6160
 
              Baa    -0.0291     2.104     0.751     0.702 -0.1535  0.5063  0.8486
     6 O(17)  Bbb    -0.0145     1.049     0.374     0.350 -0.4665  0.7199 -0.5139
              Bcc     0.0436    -3.153    -1.125    -1.052  0.8711  0.4747 -0.1257
 
              Baa    -0.0971   -20.984    -7.488    -7.000  0.4452  0.7020 -0.5559
     7 P(31)  Bbb    -0.0911   -19.684    -7.024    -6.566  0.4658  0.3487  0.8133
              Bcc     0.1881    40.668    14.511    13.565  0.7647 -0.6210 -0.1718
 
              Baa    -0.0188    -2.525    -0.901    -0.842  0.3735 -0.0221  0.9274
     8 C(13)  Bbb    -0.0030    -0.398    -0.142    -0.133  0.7002 -0.6491 -0.2975
              Bcc     0.0218     2.923     1.043     0.975  0.6085  0.7604 -0.2270
 
              Baa    -0.0062    -0.827    -0.295    -0.276  0.8754 -0.1376 -0.4634
     9 C(13)  Bbb    -0.0023    -0.302    -0.108    -0.101  0.4651 -0.0220  0.8850
              Bcc     0.0084     1.129     0.403     0.377  0.1320  0.9902 -0.0447
 
              Baa    -0.0020    -1.081    -0.386    -0.361  0.3193  0.0470  0.9465
    10 H(1)   Bbb    -0.0017    -0.917    -0.327    -0.306  0.8473 -0.4615 -0.2629
              Bcc     0.0037     1.998     0.713     0.667  0.4244  0.8859 -0.1871
 
              Baa    -0.0077    -1.034    -0.369    -0.345  0.4362 -0.0258  0.8995
    11 C(13)  Bbb     0.0006     0.081     0.029     0.027  0.8997 -0.0023 -0.4364
              Bcc     0.0071     0.953     0.340     0.318  0.0134  0.9997  0.0222
 
              Baa    -0.0013    -0.678    -0.242    -0.226  0.3867 -0.0396  0.9214
    12 H(1)   Bbb    -0.0008    -0.419    -0.150    -0.140  0.9220 -0.0038 -0.3871
              Bcc     0.0021     1.098     0.392     0.366  0.0188  0.9992  0.0350
 
              Baa    -0.0061    -0.821    -0.293    -0.274  0.8897  0.1296 -0.4378
    13 C(13)  Bbb    -0.0023    -0.304    -0.108    -0.101  0.4402  0.0107  0.8978
              Bcc     0.0084     1.125     0.401     0.375 -0.1210  0.9915  0.0475
 
              Baa    -0.0020    -1.082    -0.386    -0.361  0.2945 -0.1129  0.9490
    14 H(1)   Bbb    -0.0017    -0.908    -0.324    -0.303  0.8676  0.4479 -0.2160
              Bcc     0.0037     1.989     0.710     0.663 -0.4007  0.8869  0.2298
 
              Baa    -0.0190    -2.551    -0.910    -0.851  0.4751 -0.0349  0.8792
    15 C(13)  Bbb    -0.0030    -0.397    -0.142    -0.133  0.6794  0.6495 -0.3414
              Bcc     0.0220     2.949     1.052     0.984 -0.5592  0.7596  0.3323
 
              Baa    -0.0111    -1.488    -0.531    -0.496  0.2710 -0.1046  0.9569
    16 C(13)  Bbb     0.0018     0.238     0.085     0.079  0.9117  0.3468 -0.2203
              Bcc     0.0093     1.250     0.446     0.417 -0.3088  0.9321  0.1894
 
              Baa    -0.0040    -2.123    -0.757    -0.708  0.1443 -0.2204  0.9647
    17 H(1)   Bbb    -0.0024    -1.263    -0.451    -0.421  0.7166  0.6956  0.0517
              Bcc     0.0063     3.385     1.208     1.129 -0.6824  0.6838  0.2583
 
              Baa    -0.0059    -3.174    -1.133    -1.059  0.3377 -0.5617  0.7552
    18 H(1)   Bbb    -0.0045    -2.383    -0.850    -0.795  0.7939  0.6010  0.0920
              Bcc     0.0104     5.557     1.983     1.854 -0.5056  0.5686  0.6490
 
              Baa    -0.5637    13.812     4.928     4.607  0.0110 -0.0723  0.9973
    19 Ru(99) Bbb     0.1961    -4.804    -1.714    -1.602  0.9999 -0.0009 -0.0111
              Bcc     0.3676    -9.008    -3.214    -3.005  0.0017  0.9974  0.0723
 
              Baa    -0.0150    -7.989    -2.851    -2.665  0.9362  0.2685  0.2267
    20 H(1)   Bbb    -0.0124    -6.602    -2.356    -2.202 -0.2186  0.9501 -0.2224
              Bcc     0.0273    14.591     5.206     4.867 -0.2751  0.1587  0.9482
 
              Baa    -0.0086    -1.155    -0.412    -0.385  0.1165  0.8724  0.4746
    21 C(13)  Bbb    -0.0078    -1.040    -0.371    -0.347  0.6977  0.2682 -0.6643
              Bcc     0.0164     2.196     0.784     0.732  0.7069 -0.4085  0.5774
 
              Baa    -0.0131    -1.763    -0.629    -0.588  0.3566  0.4752  0.8043
    22 C(13)  Bbb    -0.0102    -1.373    -0.490    -0.458 -0.4532  0.8409 -0.2959
              Bcc     0.0234     3.136     1.119     1.046  0.8170  0.2590 -0.5152
 
              Baa    -0.0153    -2.049    -0.731    -0.683  0.2755 -0.5147  0.8119
    23 C(13)  Bbb    -0.0120    -1.613    -0.576    -0.538  0.4745  0.8073  0.3508
              Bcc     0.0273     3.662     1.307     1.221  0.8360 -0.2886 -0.4667
 
              Baa    -0.0070    -0.937    -0.334    -0.312  0.0684  0.7779 -0.6246
    24 C(13)  Bbb    -0.0064    -0.860    -0.307    -0.287  0.6989 -0.4841 -0.5265
              Bcc     0.0134     1.796     0.641     0.599  0.7120  0.4005  0.5768
 
              Baa    -0.0042    -0.566    -0.202    -0.189 -0.3813 -0.5012  0.7768
    25 C(13)  Bbb    -0.0035    -0.475    -0.169    -0.158  0.7473 -0.6618 -0.0602
              Bcc     0.0078     1.041     0.371     0.347  0.5442  0.5576  0.6269
 
              Baa    -0.0036    -1.895    -0.676    -0.632 -0.3048 -0.3297  0.8935
    26 H(1)   Bbb    -0.0027    -1.454    -0.519    -0.485  0.7940 -0.6061  0.0472
              Bcc     0.0063     3.349     1.195     1.117  0.5260  0.7238  0.4465
 
              Baa    -0.0073    -3.884    -1.386    -1.295 -0.5024 -0.5875  0.6344
    27 H(1)   Bbb    -0.0055    -2.908    -1.038    -0.970  0.7914 -0.6080  0.0637
              Bcc     0.0127     6.792     2.424     2.266  0.3482  0.5341  0.7704
 
              Baa    -0.0023    -1.224    -0.437    -0.408 -0.3739 -0.6214  0.6886
    28 H(1)   Bbb    -0.0019    -1.026    -0.366    -0.342  0.7822 -0.6101 -0.1259
              Bcc     0.0042     2.250     0.803     0.750  0.4983  0.4916  0.7142
 
              Baa    -0.0042    -0.566    -0.202    -0.189 -0.6366  0.3522  0.6861
    29 C(13)  Bbb    -0.0039    -0.517    -0.185    -0.172  0.1918  0.9340 -0.3016
              Bcc     0.0081     1.083     0.386     0.361  0.7470  0.0604  0.6621
 
              Baa    -0.0022    -1.167    -0.416    -0.389  0.7827 -0.0968 -0.6148
    30 H(1)   Bbb    -0.0020    -1.067    -0.381    -0.356  0.0128  0.9901 -0.1395
              Bcc     0.0042     2.234     0.797     0.745  0.6223  0.1013  0.7762
 
              Baa    -0.0066    -3.527    -1.259    -1.177  0.7306 -0.3081 -0.6094
    31 H(1)   Bbb    -0.0048    -2.565    -0.915    -0.856  0.3004  0.9464 -0.1184
              Bcc     0.0114     6.092     2.174     2.032  0.6132 -0.0966  0.7840
 
              Baa    -0.0027    -1.455    -0.519    -0.485 -0.5073  0.1980  0.8387
    32 H(1)   Bbb    -0.0024    -1.269    -0.453    -0.423  0.1815  0.9760 -0.1206
              Bcc     0.0051     2.725     0.972     0.909  0.8424 -0.0911  0.5311
 
              Baa    -0.0031    -0.417    -0.149    -0.139 -0.2202 -0.1108  0.9691
    33 C(13)  Bbb    -0.0030    -0.397    -0.142    -0.132 -0.4336  0.9011  0.0046
              Bcc     0.0061     0.813     0.290     0.271  0.8738  0.4192  0.2465
 
              Baa    -0.0015    -0.778    -0.278    -0.259 -0.2878  0.9063 -0.3096
    34 H(1)   Bbb    -0.0013    -0.676    -0.241    -0.226 -0.5496  0.1085  0.8284
              Bcc     0.0027     1.454     0.519     0.485  0.7843  0.4085  0.4668
 
              Baa    -0.0019    -1.023    -0.365    -0.341 -0.0096 -0.6792  0.7339
    35 H(1)   Bbb    -0.0016    -0.868    -0.310    -0.290 -0.3217  0.6970  0.6408
              Bcc     0.0035     1.891     0.675     0.631  0.9468  0.2299  0.2252
 
              Baa    -0.0019    -1.036    -0.370    -0.345 -0.3590  0.2715  0.8930
    36 H(1)   Bbb    -0.0018    -0.947    -0.338    -0.316 -0.4686  0.7750 -0.4240
              Bcc     0.0037     1.983     0.708     0.661  0.8072  0.5706  0.1511
 
              Baa    -0.0046    -0.616    -0.220    -0.206  0.0589  0.8071  0.5874
    37 C(13)  Bbb    -0.0043    -0.576    -0.205    -0.192  0.5362 -0.5219  0.6634
              Bcc     0.0089     1.192     0.425     0.398  0.8420  0.2759 -0.4635
 
              Baa    -0.0022    -1.174    -0.419    -0.392  0.3149 -0.6080  0.7288
    38 H(1)   Bbb    -0.0017    -0.909    -0.324    -0.303 -0.1298  0.7331  0.6676
              Bcc     0.0039     2.082     0.743     0.695  0.9402  0.3048 -0.1519
 
              Baa    -0.0019    -1.001    -0.357    -0.334  0.4354 -0.1405  0.8892
    39 H(1)   Bbb    -0.0012    -0.636    -0.227    -0.212  0.0697  0.9900  0.1223
              Bcc     0.0031     1.637     0.584     0.546  0.8976 -0.0088 -0.4408
 
              Baa    -0.0024    -1.307    -0.466    -0.436  0.2696  0.5990  0.7540
    40 H(1)   Bbb    -0.0018    -0.950    -0.339    -0.317 -0.5819  0.7252 -0.3680
              Bcc     0.0042     2.257     0.805     0.753  0.7673  0.3396 -0.5441
 
              Baa    -0.0040    -0.531    -0.190    -0.177  0.1452  0.2945  0.9446
    41 C(13)  Bbb    -0.0023    -0.305    -0.109    -0.102  0.2500  0.9128 -0.3230
              Bcc     0.0062     0.837     0.299     0.279  0.9573 -0.2831 -0.0589
 
              Baa    -0.0023    -1.209    -0.431    -0.403  0.2464  0.1306  0.9603
    42 H(1)   Bbb    -0.0018    -0.948    -0.338    -0.316  0.3333  0.9190 -0.2105
              Bcc     0.0040     2.157     0.770     0.719  0.9100 -0.3720 -0.1829
 
              Baa    -0.0024    -1.273    -0.454    -0.425 -0.0276  0.5006  0.8652
    43 H(1)   Bbb    -0.0021    -1.144    -0.408    -0.382  0.2233  0.8468 -0.4828
              Bcc     0.0045     2.417     0.862     0.806  0.9744 -0.1799  0.1351
 
              Baa    -0.0053    -2.802    -1.000    -0.935 -0.0295  0.1207  0.9922
    44 H(1)   Bbb    -0.0040    -2.135    -0.762    -0.712  0.4521  0.8870 -0.0944
              Bcc     0.0093     4.937     1.761     1.647  0.8915 -0.4458  0.0808
 
              Baa    -0.0052    -0.703    -0.251    -0.235  0.4578  0.8453  0.2753
    45 C(13)  Bbb    -0.0047    -0.631    -0.225    -0.210  0.5326 -0.5087  0.6764
              Bcc     0.0099     1.334     0.476     0.445  0.7119 -0.1631 -0.6831
 
              Baa    -0.0087    -4.616    -1.647    -1.540  0.4769 -0.4273  0.7681
    46 H(1)   Bbb    -0.0068    -3.646    -1.301    -1.216  0.5836  0.8074  0.0869
              Bcc     0.0155     8.262     2.948     2.756  0.6573 -0.4068 -0.6344
 
              Baa    -0.0049    -2.621    -0.935    -0.874 -0.2267  0.9625 -0.1489
    47 H(1)   Bbb    -0.0045    -2.403    -0.857    -0.801  0.7700  0.2707  0.5778
              Bcc     0.0094     5.024     1.793     1.676 -0.5964 -0.0163  0.8025
 
              Baa    -0.0027    -1.456    -0.519    -0.486  0.4119 -0.5948  0.6903
    48 H(1)   Bbb    -0.0022    -1.198    -0.428    -0.400  0.5587  0.7633  0.3244
              Bcc     0.0050     2.654     0.947     0.885  0.7199 -0.2521 -0.6467
 
              Baa    -0.0042    -0.566    -0.202    -0.189  0.4863  0.7058 -0.5152
    49 C(13)  Bbb    -0.0039    -0.517    -0.185    -0.173 -0.4584  0.7080  0.5373
              Bcc     0.0081     1.083     0.387     0.361  0.7439 -0.0251  0.6678
 
              Baa    -0.0023    -1.231    -0.439    -0.411  0.5544  0.7060 -0.4408
    50 H(1)   Bbb    -0.0021    -1.125    -0.401    -0.375 -0.4700  0.7026  0.5342
              Bcc     0.0044     2.356     0.841     0.786  0.6868 -0.0890  0.7214
 
              Baa    -0.0066    -3.523    -1.257    -1.175  0.5053  0.7203 -0.4752
    51 H(1)   Bbb    -0.0062    -3.300    -1.178    -1.101 -0.5948  0.6897  0.4130
              Bcc     0.0128     6.823     2.435     2.276  0.6252  0.0739  0.7769
 
              Baa    -0.0033    -1.768    -0.631    -0.590 -0.4153 -0.3927  0.8206
    52 H(1)   Bbb    -0.0028    -1.514    -0.540    -0.505 -0.3093  0.9093  0.2786
              Bcc     0.0062     3.282     1.171     1.095  0.8555  0.1381  0.4990
 
              Baa    -0.0038    -0.514    -0.184    -0.172 -0.1805  0.0739  0.9808
    53 C(13)  Bbb    -0.0037    -0.500    -0.178    -0.167  0.4035  0.9150  0.0053
              Bcc     0.0076     1.014     0.362     0.338  0.8970 -0.3967  0.1950
 
              Baa    -0.0016    -0.864    -0.308    -0.288  0.3283  0.9181  0.2220
    54 H(1)   Bbb    -0.0013    -0.684    -0.244    -0.228 -0.5010 -0.0300  0.8649
              Bcc     0.0029     1.549     0.553     0.517  0.8007 -0.3952  0.4501
 
              Baa    -0.0020    -1.084    -0.387    -0.362 -0.0188  0.6649  0.7467
    55 H(1)   Bbb    -0.0017    -0.890    -0.317    -0.297  0.2660  0.7233 -0.6373
              Bcc     0.0037     1.974     0.704     0.658  0.9638 -0.1867  0.1905
 
              Baa    -0.0020    -1.088    -0.388    -0.363 -0.4714 -0.5516  0.6881
    56 H(1)   Bbb    -0.0018    -0.956    -0.341    -0.319  0.3226  0.6183  0.7167
              Bcc     0.0038     2.043     0.729     0.682  0.8208 -0.5598  0.1135
 
              Baa    -0.0043    -0.573    -0.204    -0.191 -0.3528  0.4779  0.8045
    57 C(13)  Bbb    -0.0038    -0.508    -0.181    -0.169  0.7461  0.6625 -0.0664
              Bcc     0.0081     1.081     0.386     0.360  0.5647 -0.5768  0.5903
 
              Baa    -0.0035    -1.886    -0.673    -0.629 -0.2789  0.3052  0.9105
    58 H(1)   Bbb    -0.0028    -1.492    -0.532    -0.498  0.7945  0.6059  0.0403
              Bcc     0.0063     3.378     1.205     1.127 -0.5394  0.7346 -0.4115
 
              Baa    -0.0069    -3.670    -1.309    -1.224  0.7538 -0.2636 -0.6020
    59 H(1)   Bbb    -0.0060    -3.202    -1.143    -1.068  0.5398  0.7707  0.3385
              Bcc     0.0129     6.872     2.452     2.292  0.3747 -0.5801  0.7232
 
              Baa    -0.0023    -1.234    -0.440    -0.412 -0.1307  0.7356  0.6646
    60 H(1)   Bbb    -0.0021    -1.130    -0.403    -0.377  0.8401  0.4381 -0.3198
              Bcc     0.0044     2.364     0.844     0.789  0.5264 -0.5166  0.6753
 
              Baa    -0.0053    -0.711    -0.254    -0.237  0.7502 -0.1350  0.6472
    61 C(13)  Bbb    -0.0045    -0.610    -0.218    -0.203  0.0044  0.9799  0.1993
              Bcc     0.0098     1.321     0.471     0.441 -0.6612 -0.1467  0.7358
 
              Baa    -0.0084    -4.505    -1.607    -1.503  0.5754  0.4276  0.6972
    62 H(1)   Bbb    -0.0061    -3.230    -1.153    -1.078 -0.5593  0.8277 -0.0460
              Bcc     0.0145     7.735     2.760     2.580 -0.5967 -0.3634  0.7154
 
              Baa    -0.0047    -2.497    -0.891    -0.833  0.8583  0.0060  0.5131
    63 H(1)   Bbb    -0.0040    -2.111    -0.753    -0.704  0.0115  0.9995 -0.0309
              Bcc     0.0086     4.607     1.644     1.537 -0.5130  0.0324  0.8578
 
              Baa    -0.0026    -1.371    -0.489    -0.457  0.5321  0.5126  0.6739
    64 H(1)   Bbb    -0.0021    -1.099    -0.392    -0.367 -0.5095  0.8295 -0.2286
              Bcc     0.0046     2.470     0.881     0.824 -0.6762 -0.2217  0.7026
 
              Baa    -0.0042    -0.565    -0.202    -0.189  0.1760 -0.6921  0.7000
    65 C(13)  Bbb    -0.0040    -0.542    -0.193    -0.181  0.5120  0.6717  0.5353
              Bcc     0.0082     1.107     0.395     0.369  0.8407 -0.2642 -0.4726
 
              Baa    -0.0021    -1.137    -0.406    -0.379  0.3311  0.6400  0.6934
    66 H(1)   Bbb    -0.0017    -0.900    -0.321    -0.300  0.0826  0.7124 -0.6969
              Bcc     0.0038     2.037     0.727     0.680  0.9400 -0.2880 -0.1830
 
              Baa    -0.0018    -0.958    -0.342    -0.320  0.4699  0.1397  0.8716
    67 H(1)   Bbb    -0.0011    -0.612    -0.218    -0.204 -0.0688  0.9902 -0.1216
              Bcc     0.0029     1.570     0.560     0.524  0.8800  0.0028 -0.4749
 
              Baa    -0.0024    -1.263    -0.451    -0.421  0.3529 -0.5170  0.7798
    68 H(1)   Bbb    -0.0017    -0.917    -0.327    -0.306  0.5586  0.7850  0.2676
              Bcc     0.0041     2.180     0.778     0.727  0.7506 -0.3412 -0.5659
 
              Baa    -0.0040    -0.539    -0.192    -0.180  0.1777 -0.1631  0.9705
    69 C(13)  Bbb    -0.0024    -0.320    -0.114    -0.107 -0.2336  0.9510  0.2026
              Bcc     0.0064     0.859     0.307     0.287  0.9560  0.2627 -0.1309
 
              Baa    -0.0023    -1.205    -0.430    -0.402  0.3033 -0.1066  0.9469
    70 H(1)   Bbb    -0.0017    -0.929    -0.332    -0.310 -0.3163  0.9261  0.2056
              Bcc     0.0040     2.134     0.762     0.712  0.8989  0.3619 -0.2472
 
              Baa    -0.0025    -1.316    -0.469    -0.439  0.0174 -0.4567  0.8894
    71 H(1)   Bbb    -0.0022    -1.162    -0.415    -0.388 -0.2055  0.8690  0.4502
              Bcc     0.0046     2.478     0.884     0.827  0.9785  0.1906  0.0787
 
              Baa    -0.0055    -2.911    -1.039    -0.971  0.0669 -0.1244  0.9900
    72 H(1)   Bbb    -0.0041    -2.194    -0.783    -0.732 -0.4510  0.8813  0.1412
              Bcc     0.0096     5.105     1.822     1.703  0.8900  0.4559 -0.0028
 
              Baa    -0.3020    21.852     7.797     7.289  0.0650 -0.0735  0.9952
    73 O(17)  Bbb    -0.0163     1.179     0.421     0.393  0.9973 -0.0294 -0.0673
              Bcc     0.3183   -23.032    -8.218    -7.683  0.0342  0.9969  0.0714
 
              Baa    -0.0548    -7.353    -2.624    -2.453  0.1615  0.9865  0.0278
    74 C(13)  Bbb    -0.0384    -5.155    -1.839    -1.720  0.9860 -0.1601 -0.0476
              Bcc     0.0932    12.508     4.463     4.172  0.0425 -0.0351  0.9985
 
              Baa    -0.0257   -13.709    -4.892    -4.573  0.9976  0.0161 -0.0667
    75 H(1)   Bbb    -0.0048    -2.566    -0.916    -0.856 -0.0466  0.8721 -0.4870
              Bcc     0.0305    16.275     5.807     5.429  0.0503  0.4890  0.8708
 
              Baa    -0.0734     5.314     1.896     1.773  0.0251  0.9989  0.0393
    76 O(17)  Bbb    -0.0336     2.429     0.867     0.810  0.9981 -0.0229 -0.0563
              Bcc     0.1070    -7.743    -2.763    -2.583  0.0554 -0.0406  0.9976
 

 ---------------------------------------------------------------------------------

 Unable to Open any file for archive entry.
 1\1\GINC-NODE109\SP\UB3LYP\def2SVP\C24H45N1O3P2Ru1(3)\DO57CIG\16-Jan-2
 025\0\\# ub3lyp scrf=(smd,solvent=water) def2svp empiricaldispersion=g
 d3bj int=ultrafine scf=xqc guess=read\\A_Ru_Cis_DFT_B3LYP_def2svp_smd_
 water_T_Opt_3MLCT_from_3MLCT_trans\\0,3\P,0,2.412868,-0.094449,-0.1442
 65\N,0,-0.014745,1.67011,-0.067832\C,0,2.18893,1.497128,-1.074514\H,0,
 3.113566,2.087781,-1.109246\H,0,1.953738,1.189827,-2.107226\O,0,-0.142
 639,-1.080228,-2.140182\P,0,-2.428322,-0.088089,0.052854\C,0,1.054182,
 2.32638,-0.534279\C,0,1.114542,3.72489,-0.504876\H,0,1.992958,4.241783
 ,-0.894696\C,0,0.04121,4.42916,0.042209\H,0,0.062461,5.520526,0.084666
 \C,0,-1.057448,3.726797,0.538424\H,0,-1.91242,4.245906,0.974803\C,0,-1
 .05312,2.328339,0.459942\C,0,-2.212963,1.510172,0.968938\H,0,-3.132233
 ,2.11112,0.970919\H,0,-2.011577,1.219289,2.014087\Ru,0,-0.01216227,-1.
 01070848,-0.05203733\H,0,0.692632,-1.43269,-2.464648\C,0,-3.251867,0.4
 14832,-1.597843\C,0,-3.689242,-1.026507,1.141738\C,0,3.672968,-1.03308
 4,-1.235163\C,0,3.23895,0.41126,1.50261\C,0,2.316777,1.435151,2.194192
 \H,0,2.315062,2.400477,1.671025\H,0,1.27969,1.092861,2.284222\H,0,2.70
 2246,1.612888,3.211336\C,0,3.382488,-0.831614,2.403768\H,0,3.521161,-0
 .503169,3.446828\H,0,2.501202,-1.483887,2.374833\H,0,4.256058,-1.43457
 8,2.131644\C,0,4.614888,1.069055,1.328299\H,0,4.960743,1.42544,2.3136\
 H,0,5.368667,0.364833,0.953429\H,0,4.578807,1.940314,0.657466\C,0,4.74
 511,-0.114754,-1.842777\H,0,5.322707,0.432533,-1.089586\H,0,5.451726,-
 0.73695,-2.41789\H,0,4.308508,0.612477,-2.542041\C,0,4.330706,-2.15353
 1,-0.417947\H,0,4.873638,-2.822089,-1.106183\H,0,5.057683,-1.766837,0.
 307096\H,0,3.584063,-2.758676,0.11881\C,0,2.906494,-1.687136,-2.394227
 \H,0,2.185308,-2.432688,-2.030052\H,0,2.39151,-0.942841,-3.019376\H,0,
 3.627573,-2.211705,-3.042014\C,0,-3.305865,-0.812024,-2.526736\H,0,-3.
 622781,-0.480335,-3.530174\H,0,-2.318534,-1.282973,-2.614999\H,0,-4.02
 9577,-1.561929,-2.187181\C,0,-4.659288,1.003095,-1.433168\H,0,-5.00036
 6,1.37308,-2.415293\H,0,-5.388741,0.25561,-1.095253\H,0,-4.677611,1.85
 4828,-0.736724\C,0,-2.365234,1.487083,-2.258986\H,0,-2.389092,2.438805
 ,-1.710576\H,0,-1.322309,1.164388,-2.356179\H,0,-2.758542,1.681744,-3.
 270545\C,0,-2.923237,-1.658418,2.312524\H,0,-2.185951,-2.395359,1.9665
 45\H,0,-2.408753,-0.907964,2.926963\H,0,-3.645996,-2.180454,2.961255\C
 ,0,-4.776892,-0.114107,1.731119\H,0,-5.362472,0.410039,0.968029\H,0,-5
 .474454,-0.736122,2.317381\H,0,-4.352501,0.632985,2.417059\C,0,-4.3270
 81,-2.163039,0.330299\H,0,-4.882085,-2.821634,1.018632\H,0,-5.039442,-
 1.794447,-0.418833\H,0,-3.566315,-2.775045,-0.178514\O,0,0.02719541,-3
 .69665309,-0.32434691\C,0,0.05929373,-1.04636848,1.76684967\H,0,-0.036
 16759,-3.69874109,-1.29515491\O,0,0.12707673,-1.08763748,2.93618267\\V
 ersion=ES64L-G16RevC.02\State=3-A\HF=-1998.9251569\S2=2.022895\S2-1=0.
 \S2A=2.000294\RMSD=1.954e-09\Dipole=0.8534548,6.9198817,0.2328074\Quad
 rupole=33.6120769,-21.0988811,-12.5131957,-1.3652068,-8.951977,2.46624
 92\PG=C01 [X(C24H45N1O3P2Ru1)]\\@
 The archive entry for this job was punched.


 WE ARE PERHAPS NOT FAR REMOVED FROM THE TIME WHEN WE SHALL BE ABLE TO SUBMIT
 THE BULK OF CHEMICAL PHENOMENA TO CALCULATION.

            -- JOSEPH LOUIS GAY-LUSSAC
               MEMOIRES DE LA SOCIETE D'ARCUEIL, 2, 207 (1808)
 Job cpu time:       0 days  2 hours 45 minutes 16.9 seconds.
 Elapsed time:       0 days  0 hours  7 minutes 30.6 seconds.
 File lengths (MBytes):  RWF=    828 Int=      0 D2E=      0 Chk=     67 Scr=      1
 Normal termination of Gaussian 16 at Thu Jan 16 18:22:46 2025.
