 Entering Gaussian System, Link 0=g16
 Input=A_Ru_Cis_straight_CO_DFT_B3LYP_def2SVP_smd_water_T_3MC_freezedScan_2_3.gjf
 Output=A_Ru_Cis_straight_CO_DFT_B3LYP_def2SVP_smd_water_T_3MC_freezedScan_2_3.log
 Initial command:
 /cluster/apps/gaussian/g16_c02/g16/l1.exe "/beegfs/do57cig/gauss2178640/Gau-842522.inp" -scrdir="/beegfs/do57cig/gauss2178640/"
 Default CPUs for threads: 0-23
 Default is to use a total of  24 processors:
                               24 via shared-memory
                                1 via Linda
 Entering Link 1 = /cluster/apps/gaussian/g16_c02/g16/l1.exe PID=    842530.
  
 Copyright (c) 1988-2021, Gaussian, Inc.  All Rights Reserved.
  
 This is part of the Gaussian(R) 16 program.  It is based on
 the Gaussian(R) 09 system (copyright 2009, Gaussian, Inc.),
 the Gaussian(R) 03 system (copyright 2003, Gaussian, Inc.),
 the Gaussian(R) 98 system (copyright 1998, Gaussian, Inc.),
 the Gaussian(R) 94 system (copyright 1995, Gaussian, Inc.),
 the Gaussian 92(TM) system (copyright 1992, Gaussian, Inc.),
 the Gaussian 90(TM) system (copyright 1990, Gaussian, Inc.),
 the Gaussian 88(TM) system (copyright 1988, Gaussian, Inc.),
 the Gaussian 86(TM) system (copyright 1986, Carnegie Mellon
 University), and the Gaussian 82(TM) system (copyright 1983,
 Carnegie Mellon University). Gaussian is a federally registered
 trademark of Gaussian, Inc.
  
 This software contains proprietary and confidential information,
 including trade secrets, belonging to Gaussian, Inc.
  
 This software is provided under written license and may be
 used, copied, transmitted, or stored only in accord with that
 written license.
  
 The following legend is applicable only to US Government
 contracts under FAR:
  
                    RESTRICTED RIGHTS LEGEND
  
 Use, reproduction and disclosure by the US Government is
 subject to restrictions as set forth in subparagraphs (a)
 and (c) of the Commercial Computer Software - Restricted
 Rights clause in FAR 52.227-19.
  
 Gaussian, Inc.
 340 Quinnipiac St., Bldg. 40, Wallingford CT 06492
  
  
 ---------------------------------------------------------------
 Warning -- This program may not be used in any manner that
 competes with the business of Gaussian, Inc. or will provide
 assistance to any competitor of Gaussian, Inc.  The licensee
 of this program is prohibited from giving any competitor of
 Gaussian, Inc. access to this program.  By using this program,
 the user acknowledges that Gaussian, Inc. is engaged in the
 business of creating and licensing software in the field of
 computational chemistry and represents and warrants to the
 licensee that it is not a competitor of Gaussian, Inc. and that
 it will not use this program in any manner prohibited above.
 ---------------------------------------------------------------
  

 Cite this work as:
 Gaussian 16, Revision C.02,
 M. J. Frisch, G. W. Trucks, H. B. Schlegel, G. E. Scuseria, 
 M. A. Robb, J. R. Cheeseman, G. Scalmani, V. Barone, 
 G. A. Petersson, H. Nakatsuji, X. Li, M. Caricato, A. V. Marenich, 
 J. Bloino, B. G. Janesko, R. Gomperts, B. Mennucci, H. P. Hratchian, 
 J. V. Ortiz, A. F. Izmaylov, J. L. Sonnenberg, D. Williams-Young, 
 F. Ding, F. Lipparini, F. Egidi, J. Goings, B. Peng, A. Petrone, 
 T. Henderson, D. Ranasinghe, V. G. Zakrzewski, J. Gao, N. Rega, 
 G. Zheng, W. Liang, M. Hada, M. Ehara, K. Toyota, R. Fukuda, 
 J. Hasegawa, M. Ishida, T. Nakajima, Y. Honda, O. Kitao, H. Nakai, 
 T. Vreven, K. Throssell, J. A. Montgomery, Jr., J. E. Peralta, 
 F. Ogliaro, M. J. Bearpark, J. J. Heyd, E. N. Brothers, K. N. Kudin, 
 V. N. Staroverov, T. A. Keith, R. Kobayashi, J. Normand, 
 K. Raghavachari, A. P. Rendell, J. C. Burant, S. S. Iyengar, 
 J. Tomasi, M. Cossi, J. M. Millam, M. Klene, C. Adamo, R. Cammi, 
 J. W. Ochterski, R. L. Martin, K. Morokuma, O. Farkas, 
 J. B. Foresman, and D. J. Fox, Gaussian, Inc., Wallingford CT, 2019.
 
 ******************************************
 Gaussian 16:  ES64L-G16RevC.02  7-Dec-2021
                16-Jan-2025 
 ******************************************
 %chk=A_Ru_Cis_straight_CO_DFT_B3LYP_def2SVP_smd_water_T_3MC_freezedScan_2_3.chk
 %Oldchk=A_Ru_Cis_straight_CO_DFT_B3LYP_def2SVP_smd_water_T_3MC_tweaked_geom.chk
 SetSPE:  set environment variable "OMP_PROC_BIND" = "true"
 SetSPE:  set environment variable "OMP_PLACES" = "{0},{1},{2},{3},{4},{5},{6},{7},{8},{9},{10},{11},{12},{13},{14},{15},{16},{17},{18},{19},{20},{21},{22},{23}"
 Copying data from "A_Ru_Cis_straight_CO_DFT_B3LYP_def2SVP_smd_water_T_3MC_tweaked_geom.chk" to current chk file "A_Ru_Cis_straight_CO_DFT_B3LYP_def2SVP_smd_water_T_3MC_freezedScan_2_3.chk"
 IOpt=  2 FromEx=T IUOpen= 4 IOptOp= 5 NList=   0 IFRang= 0 IUIn= 4 IUOut= 2.
 ----------------------------------------------------------------------
 # ub3lyp scrf=(smd,solvent=water) def2svp empiricaldispersion=gd3bj in
 t=ultrafine scf=xqc guess=read
 ----------------------------------------------------------------------
 1/38=1,172=1/1;
 2/12=2,17=6,18=5,40=1/2;
 3/5=43,7=101,11=2,25=1,30=1,70=32201,72=1,74=-5,75=-5,116=2,124=41/1,2,3;
 4/5=1/1;
 5/5=2,8=3,13=1,38=6,53=1/2,8;
 6/7=2,8=2,9=2,10=2,28=1/1;
 99/5=1,9=1/99;
 -----------------------------------------------------------------
 A_Ru_Cis_DFT_B3LYP_def2svp_smd_water_T_Opt_3MLCT_from_3MLCT_trans
 -----------------------------------------------------------------
 Symbolic Z-matrix:
 Charge =  0 Multiplicity = 3
 P                     2.41287  -0.09445  -0.14427 
 N                    -0.01475   1.67011  -0.06783 
 C                     2.18893   1.49713  -1.07451 
 H                     3.11357   2.08778  -1.10925 
 H                     1.95374   1.18983  -2.10723 
 O                    -0.14264  -1.08023  -2.14018 
 P                    -2.42832  -0.08809   0.05285 
 C                     1.05418   2.32638  -0.53428 
 C                     1.11454   3.72489  -0.50488 
 H                     1.99296   4.24178  -0.8947 
 C                     0.04121   4.42916   0.04221 
 H                     0.06246   5.52053   0.08467 
 C                    -1.05745   3.7268    0.53842 
 H                    -1.91242   4.24591   0.9748 
 C                    -1.05312   2.32834   0.45994 
 C                    -2.21296   1.51017   0.96894 
 H                    -3.13223   2.11112   0.97092 
 H                    -2.01158   1.21929   2.01409 
 Ru                   -0.01216  -1.01071  -0.05204 
 H                     0.69263  -1.43269  -2.46465 
 C                    -3.25187   0.41483  -1.59784 
 C                    -3.68924  -1.02651   1.14174 
 C                     3.67297  -1.03308  -1.23516 
 C                     3.23895   0.41126   1.50261 
 C                     2.31678   1.43515   2.19419 
 H                     2.31506   2.40048   1.67103 
 H                     1.27969   1.09286   2.28422 
 H                     2.70225   1.61289   3.21134 
 C                     3.38249  -0.83161   2.40377 
 H                     3.52116  -0.50317   3.44683 
 H                     2.5012   -1.48389   2.37483 
 H                     4.25606  -1.43458   2.13164 
 C                     4.61489   1.06906   1.3283 
 H                     4.96074   1.42544   2.3136 
 H                     5.36867   0.36483   0.95343 
 H                     4.57881   1.94031   0.65747 
 C                     4.74511  -0.11475  -1.84278 
 H                     5.32271   0.43253  -1.08959 
 H                     5.45173  -0.73695  -2.41789 
 H                     4.30851   0.61248  -2.54204 
 C                     4.33071  -2.15353  -0.41795 
 H                     4.87364  -2.82209  -1.10618 
 H                     5.05768  -1.76684   0.3071 
 H                     3.58406  -2.75868   0.11881 
 C                     2.90649  -1.68714  -2.39423 
 H                     2.18531  -2.43269  -2.03005 
 H                     2.39151  -0.94284  -3.01938 
 H                     3.62757  -2.21171  -3.04201 
 C                    -3.30587  -0.81202  -2.52674 
 H                    -3.62278  -0.48034  -3.53017 
 H                    -2.31853  -1.28297  -2.615 
 H                    -4.02958  -1.56193  -2.18718 
 C                    -4.65929   1.0031   -1.43317 
 H                    -5.00037   1.37308  -2.41529 
 H                    -5.38874   0.25561  -1.09525 
 H                    -4.67761   1.85483  -0.73672 
 C                    -2.36523   1.48708  -2.25899 
 H                    -2.38909   2.43881  -1.71058 
 H                    -1.32231   1.16439  -2.35618 
 H                    -2.75854   1.68174  -3.27055 
 C                    -2.92324  -1.65842   2.31252 
 H                    -2.18595  -2.39536   1.96655 
 H                    -2.40875  -0.90796   2.92696 
 H                    -3.646    -2.18045   2.96126 
 C                    -4.77689  -0.11411   1.73112 
 H                    -5.36247   0.41004   0.96803 
 H                    -5.47445  -0.73612   2.31738 
 H                    -4.3525    0.63299   2.41706 
 C                    -4.32708  -2.16304   0.3303 
 H                    -4.88209  -2.82163   1.01863 
 H                    -5.03944  -1.79445  -0.41883 
 H                    -3.56632  -2.77505  -0.17851 
 O                     0.02136  -3.29874  -0.284 
 C                     0.05929  -1.04637   1.76685 
 H                    -0.042    -3.30082  -1.25481 
 O                     0.12708  -1.08764   2.93618 
 
 Stoichiometry    C24H45NO3P2Ru(3)
 Framework group  C1[X(C24H45NO3P2Ru)]
 Deg. of freedom   222
 Full point group                 C1      NOp   1
 Largest Abelian subgroup         C1      NOp   1
 Largest concise Abelian subgroup C1      NOp   1
                         Standard orientation:                         
 ---------------------------------------------------------------------
 Center     Atomic      Atomic             Coordinates (Angstroms)
 Number     Number       Type             X           Y           Z
 ---------------------------------------------------------------------
      1         15           0        2.412808   -0.090479   -0.143228
      2          7           0       -0.014935    1.674329   -0.077408
      3          6           0        2.188763    1.495471   -1.083013
      4          1           0        3.113356    2.085972   -1.121279
      5          1           0        1.953604    1.181961   -2.113864
      6          8           0       -0.142607   -1.088404   -2.133219
      7         15           0       -2.428385   -0.083291    0.053802
      8          6           0        1.053949    2.327866   -0.547774
      9          6           0        1.114207    3.726532   -0.526763
     10          1           0        1.992589    4.241141   -0.919669
     11          6           0        0.040818    4.433994    0.016076
     12          1           0        0.061988    5.525596    0.051984
     13          6           0       -1.057794    3.734540    0.516486
     14          1           0       -1.912809    4.256196    0.949734
     15          6           0       -1.053363    2.335637    0.446396
     16          6           0       -2.213152    1.520454    0.960281
     17          1           0       -3.132466    2.121336    0.958647
     18          1           0       -2.011755    1.235862    2.007159
     19         44           0       -0.012156   -1.006346   -0.045528
     20          1           0        0.692694   -1.442745   -2.455556
     21          6           0       -3.251949    0.409656   -1.599892
     22          6           0       -3.689247   -1.015250    1.148284
     23          6           0        3.672988   -1.035551   -1.228462
     24          6           0        3.238836    0.425163    1.500591
     25          6           0        2.316581    1.453117    2.186008
     26          1           0        2.314801    2.415287    1.657058
     27          1           0        1.279518    1.111298    2.278080
     28          1           0        2.702027    1.636983    3.202071
     29          6           0        3.382456   -0.812271    2.409192
     30          1           0        3.521094   -0.477563    3.450264
     31          1           0        2.501218   -1.464771    2.384162
     32          1           0        4.256072   -1.416793    2.140699
     33          6           0        4.614728    1.082000    1.322350
     34          1           0        4.960547    1.444316    2.305498
     35          1           0        5.368562    0.375597    0.951719
     36          1           0        4.578590    1.949216    0.646301
     37          6           0        4.745069   -0.120805   -1.841565
     38          1           0        5.322618    0.431034   -1.091666
     39          1           0        5.451736   -0.746389   -2.412927
     40          1           0        4.308421    0.602185   -2.545184
     41          6           0        4.330799   -2.151026   -0.404531
     42          1           0        4.873787   -2.823662   -1.088738
     43          1           0        5.057740   -1.759936    0.318186
     44          1           0        3.584195   -2.752994    0.135840
     45          6           0        2.906573   -1.696602   -2.383588
     46          1           0        2.185438   -2.440008   -2.014953
     47          1           0        2.391541   -0.956109   -3.013197
     48          1           0        3.627697   -2.224996   -3.028209
     49          6           0       -3.305848   -0.822755   -2.521407
     50          1           0       -3.622778   -0.497116   -3.526820
     51          1           0       -2.318482   -1.294153   -2.606833
     52          1           0       -4.029509   -1.570662   -2.177365
     53          6           0       -4.659415    0.998794   -1.438763
     54          1           0       -5.000510    1.362854   -2.423094
     55          1           0       -5.388817    0.253297   -1.096376
     56          1           0       -4.677807    1.854689   -0.747442
     57          6           0       -2.365388    1.477986   -2.267448
     58          1           0       -2.389321    2.432980   -1.724758
     59          1           0       -1.322438    1.154790   -2.362692
     60          1           0       -2.758700    1.666545   -3.280160
     61          6           0       -2.923208   -1.640069    2.322849
     62          1           0       -2.185865   -2.379019    1.981305
     63          1           0       -2.408785   -0.885904    2.932779
     64          1           0       -3.645936   -2.158256    2.974693
     65          6           0       -4.776970   -0.099410    1.732169
     66          1           0       -5.362580    0.420105    0.965942
     67          1           0       -5.474492   -0.717947    2.322146
     68          1           0       -4.352640    0.651816    2.413618
     69          6           0       -4.326995   -2.156677    0.343673
     70          1           0       -4.881958   -2.811171    1.035940
     71          1           0       -5.039375   -1.792639   -0.407664
     72          1           0       -3.566179   -2.771670   -0.161451
     73          8           0        0.021540   -3.295721   -0.263762
     74          6           0        0.059284   -1.031087    1.773541
     75          1           0       -0.041813   -3.303639   -1.234541
     76          8           0        0.127058   -1.065333    2.943101
 ---------------------------------------------------------------------
 Rotational constants (GHZ):           0.1862391           0.1023139           0.0925240
 Standard basis: def2SVP (5D, 7F)
 There are   719 symmetry adapted cartesian basis functions of A   symmetry.
 There are   684 symmetry adapted basis functions of A   symmetry.
   684 basis functions,  1154 primitive gaussians,   719 cartesian basis functions
   134 alpha electrons      132 beta electrons
       nuclear repulsion energy      4452.5044464325 Hartrees.
 NAtoms=   76 NActive=   76 NUniq=   76 SFac= 1.00D+00 NAtFMM=   60 NAOKFM=T Big=T
 Integral buffers will be    131072 words long.
 Raffenetti 2 integral format.
 Two-electron integral symmetry is turned on.
 Nuclear repulsion after empirical dispersion term =     4452.2813257869 Hartrees.
 ------------------------------------------------------------------------------
 Polarizable Continuum Model (PCM)
 =================================
 Model                : PCM.
 Atomic radii         : SMD-Coulomb.
 Polarization charges : Total charges.
 Charge compensation  : None.
 Solution method      : On-the-fly selection.
 Cavity type          : VdW (van der Waals Surface) (Alpha=1.000).
 Cavity algorithm     : GePol (No added spheres)
                        Default sphere list used, NSphG=   76.
                        Lebedev-Laikov grids with approx.  5.0 points / Ang**2.
                        Smoothing algorithm: York/Karplus (Gamma=1.0000).
                        Polarization charges: spherical gaussians, with
                                              point-specific exponents (IZeta= 3).
                        Self-potential: point-specific (ISelfS= 7).
                        Self-field    : sphere-specific E.n sum rule (ISelfD= 2).
 Solvent              : Water, Eps=  78.355300 Eps(inf)=   1.777849
 ------------------------------------------------------------------------------
 ------------------------------------------------------------------------------
 Atomic radii for non-electrostatic terms: SMD-CDS.
 ------------------------------------------------------------------------------
 Nuclear repulsion after PCM non-electrostatic terms =     4452.3002242029 Hartrees.
 One-electron integrals computed using PRISM.
   1 Symmetry operations used in ECPInt.
 ECPInt:  NShTT=   54615 NPrTT=  190596 LenC2=   47861 LenP2D=  112888.
 LDataN:  DoStor=T MaxTD1= 7 Len=  274
 NBasis=   684 RedAO= T EigKep=  4.90D-04  NBF=   684
 NBsUse=   684 1.00D-06 EigRej= -1.00D+00 NBFU=   684
 Defaulting to unpruned grid for atomic number  44.
 Initial guess from the checkpoint file:  "A_Ru_Cis_straight_CO_DFT_B3LYP_def2SVP_smd_water_T_3MC_freezedScan_2_3.chk"
 B after Tr=     0.000000   -0.000000   -0.000000
         Rot=    0.999995    0.003141    0.000007   -0.000047 Ang=   0.36 deg.
 Initial guess <Sx>= 0.0000 <Sy>= 0.0000 <Sz>= 1.0000 <S**2>= 2.0203 S= 1.0068
 Requested convergence on RMS density matrix=1.00D-08 within  32 cycles.
 Requested convergence on MAX density matrix=1.00D-06.
 Requested convergence on             energy=1.00D-06.
 No special actions if energy rises.
 Defaulting to unpruned grid for atomic number  44.
 Defaulting to unpruned grid for atomic number  44.
 Defaulting to unpruned grid for atomic number  44.
 Defaulting to unpruned grid for atomic number  44.
 Defaulting to unpruned grid for atomic number  44.
 Defaulting to unpruned grid for atomic number  44.
 Defaulting to unpruned grid for atomic number  44.
 Defaulting to unpruned grid for atomic number  44.
 Defaulting to unpruned grid for atomic number  44.
 Defaulting to unpruned grid for atomic number  44.
 Defaulting to unpruned grid for atomic number  44.
 Defaulting to unpruned grid for atomic number  44.
 Defaulting to unpruned grid for atomic number  44.
 Defaulting to unpruned grid for atomic number  44.
 Defaulting to unpruned grid for atomic number  44.
 Defaulting to unpruned grid for atomic number  44.
 Defaulting to unpruned grid for atomic number  44.
 Defaulting to unpruned grid for atomic number  44.
 Defaulting to unpruned grid for atomic number  44.
 Defaulting to unpruned grid for atomic number  44.
 Defaulting to unpruned grid for atomic number  44.
 Defaulting to unpruned grid for atomic number  44.
 Defaulting to unpruned grid for atomic number  44.
 Defaulting to unpruned grid for atomic number  44.
 Inv3:  Mode=1 IEnd=    67061952.
 Iteration    1 A*A^-1 deviation from unit magnitude is 3.55D-15 for   2568.
 Iteration    1 A*A^-1 deviation from orthogonality  is 3.77D-15 for   2933    562.
 Iteration    1 A^-1*A deviation from unit magnitude is 3.11D-15 for   1629.
 Iteration    1 A^-1*A deviation from orthogonality  is 3.64D-13 for   3187   3186.
 Error on total polarization charges =  0.07789
 SCF Done:  E(UB3LYP) =  -1998.94375391     A.U. after   18 cycles
            NFock= 18  Conv=0.17D-08     -V/T= 2.0404
 <Sx>= 0.0000 <Sy>= 0.0000 <Sz>= 1.0000 <S**2>= 2.0219 S= 1.0073
 <L.S>=  0.00000000000    
 SMD-CDS (non-electrostatic) energy       (kcal/mol) =      11.86
 (included in total energy above)
 Annihilation of the first spin contaminant:
 S**2 before annihilation     2.0219,   after     2.0003
 QCSCF skips out because SCF is already converged.

 **********************************************************************

            Population analysis using the SCF Density.

 **********************************************************************

 Orbital symmetries:
 Alpha Orbitals:
       Occupied  (A) (A) (A) (A) (A) (A) (A) (A) (A) (A) (A) (A)
                 (A) (A) (A) (A) (A) (A) (A) (A) (A) (A) (A) (A)
                 (A) (A) (A) (A) (A) (A) (A) (A) (A) (A) (A) (A)
                 (A) (A) (A) (A) (A) (A) (A) (A) (A) (A) (A) (A)
                 (A) (A) (A) (A) (A) (A) (A) (A) (A) (A) (A) (A)
                 (A) (A) (A) (A) (A) (A) (A) (A) (A) (A) (A) (A)
                 (A) (A) (A) (A) (A) (A) (A) (A) (A) (A) (A) (A)
                 (A) (A) (A) (A) (A) (A) (A) (A) (A) (A) (A) (A)
                 (A) (A) (A) (A) (A) (A) (A) (A) (A) (A) (A) (A)
                 (A) (A) (A) (A) (A) (A) (A) (A) (A) (A) (A) (A)
                 (A) (A) (A) (A) (A) (A) (A) (A) (A) (A) (A) (A)
                 (A) (A)
       Virtual   (A) (A) (A) (A) (A) (A) (A) (A) (A) (A) (A) (A)
                 (A) (A) (A) (A) (A) (A) (A) (A) (A) (A) (A) (A)
                 (A) (A) (A) (A) (A) (A) (A) (A) (A) (A) (A) (A)
                 (A) (A) (A) (A) (A) (A) (A) (A) (A) (A) (A) (A)
                 (A) (A) (A) (A) (A) (A) (A) (A) (A) (A) (A) (A)
                 (A) (A) (A) (A) (A) (A) (A) (A) (A) (A) (A) (A)
                 (A) (A) (A) (A) (A) (A) (A) (A) (A) (A) (A) (A)
                 (A) (A) (A) (A) (A) (A) (A) (A) (A) (A) (A) (A)
                 (A) (A) (A) (A) (A) (A) (A) (A) (A) (A) (A) (A)
                 (A) (A) (A) (A) (A) (A) (A) (A) (A) (A) (A) (A)
                 (A) (A) (A) (A) (A) (A) (A) (A) (A) (A) (A) (A)
                 (A) (A) (A) (A) (A) (A) (A) (A) (A) (A) (A) (A)
                 (A) (A) (A) (A) (A) (A) (A) (A) (A) (A) (A) (A)
                 (A) (A) (A) (A) (A) (A) (A) (A) (A) (A) (A) (A)
                 (A) (A) (A) (A) (A) (A) (A) (A) (A) (A) (A) (A)
                 (A) (A) (A) (A) (A) (A) (A) (A) (A) (A) (A) (A)
                 (A) (A) (A) (A) (A) (A) (A) (A) (A) (A) (A) (A)
                 (A) (A) (A) (A) (A) (A) (A) (A) (A) (A) (A) (A)
                 (A) (A) (A) (A) (A) (A) (A) (A) (A) (A) (A) (A)
                 (A) (A) (A) (A) (A) (A) (A) (A) (A) (A) (A) (A)
                 (A) (A) (A) (A) (A) (A) (A) (A) (A) (A) (A) (A)
                 (A) (A) (A) (A) (A) (A) (A) (A) (A) (A) (A) (A)
                 (A) (A) (A) (A) (A) (A) (A) (A) (A) (A) (A) (A)
                 (A) (A) (A) (A) (A) (A) (A) (A) (A) (A) (A) (A)
                 (A) (A) (A) (A) (A) (A) (A) (A) (A) (A) (A) (A)
                 (A) (A) (A) (A) (A) (A) (A) (A) (A) (A) (A) (A)
                 (A) (A) (A) (A) (A) (A) (A) (A) (A) (A) (A) (A)
                 (A) (A) (A) (A) (A) (A) (A) (A) (A) (A) (A) (A)
                 (A) (A) (A) (A) (A) (A) (A) (A) (A) (A) (A) (A)
                 (A) (A) (A) (A) (A) (A) (A) (A) (A) (A) (A) (A)
                 (A) (A) (A) (A) (A) (A) (A) (A) (A) (A) (A) (A)
                 (A) (A) (A) (A) (A) (A) (A) (A) (A) (A) (A) (A)
                 (A) (A) (A) (A) (A) (A) (A) (A) (A) (A) (A) (A)
                 (A) (A) (A) (A) (A) (A) (A) (A) (A) (A) (A) (A)
                 (A) (A) (A) (A) (A) (A) (A) (A) (A) (A) (A) (A)
                 (A) (A) (A) (A) (A) (A) (A) (A) (A) (A) (A) (A)
                 (A) (A) (A) (A) (A) (A) (A) (A) (A) (A) (A) (A)
                 (A) (A) (A) (A) (A) (A) (A) (A) (A) (A) (A) (A)
                 (A) (A) (A) (A) (A) (A) (A) (A) (A) (A) (A) (A)
                 (A) (A) (A) (A) (A) (A) (A) (A) (A) (A) (A) (A)
                 (A) (A) (A) (A) (A) (A) (A) (A) (A) (A) (A) (A)
                 (A) (A) (A) (A) (A) (A) (A) (A) (A) (A) (A) (A)
                 (A) (A) (A) (A) (A) (A) (A) (A) (A) (A) (A) (A)
                 (A) (A) (A) (A) (A) (A) (A) (A) (A) (A) (A) (A)
                 (A) (A) (A) (A) (A) (A) (A) (A) (A) (A) (A) (A)
                 (A) (A) (A) (A) (A) (A) (A) (A) (A) (A)
 Beta  Orbitals:
       Occupied  (A) (A) (A) (A) (A) (A) (A) (A) (A) (A) (A) (A)
                 (A) (A) (A) (A) (A) (A) (A) (A) (A) (A) (A) (A)
                 (A) (A) (A) (A) (A) (A) (A) (A) (A) (A) (A) (A)
                 (A) (A) (A) (A) (A) (A) (A) (A) (A) (A) (A) (A)
                 (A) (A) (A) (A) (A) (A) (A) (A) (A) (A) (A) (A)
                 (A) (A) (A) (A) (A) (A) (A) (A) (A) (A) (A) (A)
                 (A) (A) (A) (A) (A) (A) (A) (A) (A) (A) (A) (A)
                 (A) (A) (A) (A) (A) (A) (A) (A) (A) (A) (A) (A)
                 (A) (A) (A) (A) (A) (A) (A) (A) (A) (A) (A) (A)
                 (A) (A) (A) (A) (A) (A) (A) (A) (A) (A) (A) (A)
                 (A) (A) (A) (A) (A) (A) (A) (A) (A) (A) (A) (A)
       Virtual   (A) (A) (A) (A) (A) (A) (A) (A) (A) (A) (A) (A)
                 (A) (A) (A) (A) (A) (A) (A) (A) (A) (A) (A) (A)
                 (A) (A) (A) (A) (A) (A) (A) (A) (A) (A) (A) (A)
                 (A) (A) (A) (A) (A) (A) (A) (A) (A) (A) (A) (A)
                 (A) (A) (A) (A) (A) (A) (A) (A) (A) (A) (A) (A)
                 (A) (A) (A) (A) (A) (A) (A) (A) (A) (A) (A) (A)
                 (A) (A) (A) (A) (A) (A) (A) (A) (A) (A) (A) (A)
                 (A) (A) (A) (A) (A) (A) (A) (A) (A) (A) (A) (A)
                 (A) (A) (A) (A) (A) (A) (A) (A) (A) (A) (A) (A)
                 (A) (A) (A) (A) (A) (A) (A) (A) (A) (A) (A) (A)
                 (A) (A) (A) (A) (A) (A) (A) (A) (A) (A) (A) (A)
                 (A) (A) (A) (A) (A) (A) (A) (A) (A) (A) (A) (A)
                 (A) (A) (A) (A) (A) (A) (A) (A) (A) (A) (A) (A)
                 (A) (A) (A) (A) (A) (A) (A) (A) (A) (A) (A) (A)
                 (A) (A) (A) (A) (A) (A) (A) (A) (A) (A) (A) (A)
                 (A) (A) (A) (A) (A) (A) (A) (A) (A) (A) (A) (A)
                 (A) (A) (A) (A) (A) (A) (A) (A) (A) (A) (A) (A)
                 (A) (A) (A) (A) (A) (A) (A) (A) (A) (A) (A) (A)
                 (A) (A) (A) (A) (A) (A) (A) (A) (A) (A) (A) (A)
                 (A) (A) (A) (A) (A) (A) (A) (A) (A) (A) (A) (A)
                 (A) (A) (A) (A) (A) (A) (A) (A) (A) (A) (A) (A)
                 (A) (A) (A) (A) (A) (A) (A) (A) (A) (A) (A) (A)
                 (A) (A) (A) (A) (A) (A) (A) (A) (A) (A) (A) (A)
                 (A) (A) (A) (A) (A) (A) (A) (A) (A) (A) (A) (A)
                 (A) (A) (A) (A) (A) (A) (A) (A) (A) (A) (A) (A)
                 (A) (A) (A) (A) (A) (A) (A) (A) (A) (A) (A) (A)
                 (A) (A) (A) (A) (A) (A) (A) (A) (A) (A) (A) (A)
                 (A) (A) (A) (A) (A) (A) (A) (A) (A) (A) (A) (A)
                 (A) (A) (A) (A) (A) (A) (A) (A) (A) (A) (A) (A)
                 (A) (A) (A) (A) (A) (A) (A) (A) (A) (A) (A) (A)
                 (A) (A) (A) (A) (A) (A) (A) (A) (A) (A) (A) (A)
                 (A) (A) (A) (A) (A) (A) (A) (A) (A) (A) (A) (A)
                 (A) (A) (A) (A) (A) (A) (A) (A) (A) (A) (A) (A)
                 (A) (A) (A) (A) (A) (A) (A) (A) (A) (A) (A) (A)
                 (A) (A) (A) (A) (A) (A) (A) (A) (A) (A) (A) (A)
                 (A) (A) (A) (A) (A) (A) (A) (A) (A) (A) (A) (A)
                 (A) (A) (A) (A) (A) (A) (A) (A) (A) (A) (A) (A)
                 (A) (A) (A) (A) (A) (A) (A) (A) (A) (A) (A) (A)
                 (A) (A) (A) (A) (A) (A) (A) (A) (A) (A) (A) (A)
                 (A) (A) (A) (A) (A) (A) (A) (A) (A) (A) (A) (A)
                 (A) (A) (A) (A) (A) (A) (A) (A) (A) (A) (A) (A)
                 (A) (A) (A) (A) (A) (A) (A) (A) (A) (A) (A) (A)
                 (A) (A) (A) (A) (A) (A) (A) (A) (A) (A) (A) (A)
                 (A) (A) (A) (A) (A) (A) (A) (A) (A) (A) (A) (A)
                 (A) (A) (A) (A) (A) (A) (A) (A) (A) (A) (A) (A)
                 (A) (A) (A) (A) (A) (A) (A) (A) (A) (A) (A) (A)
 The electronic state is 3-A.
 Alpha  occ. eigenvalues --  -77.07845 -77.07569 -19.17306 -19.07178 -19.06386
 Alpha  occ. eigenvalues --  -14.33659 -10.26228 -10.23832 -10.23798 -10.20717
 Alpha  occ. eigenvalues --  -10.20698 -10.20608 -10.20461 -10.20288 -10.19529
 Alpha  occ. eigenvalues --  -10.19525 -10.19330 -10.19288 -10.17553 -10.17391
 Alpha  occ. eigenvalues --  -10.17373 -10.17313 -10.17309 -10.17230 -10.17200
 Alpha  occ. eigenvalues --  -10.17165 -10.17047 -10.17041 -10.16892 -10.16405
 Alpha  occ. eigenvalues --   -6.57037  -6.56767  -4.73643  -4.73587  -4.73375
 Alpha  occ. eigenvalues --   -4.73364  -4.73318  -4.73092  -3.04982  -1.89605
 Alpha  occ. eigenvalues --   -1.89485  -1.87771  -1.07573  -0.95254  -0.88518
 Alpha  occ. eigenvalues --   -0.87312  -0.82187  -0.81645  -0.79780  -0.79740
 Alpha  occ. eigenvalues --   -0.79489  -0.79241  -0.73496  -0.69874  -0.67924
 Alpha  occ. eigenvalues --   -0.67805  -0.67727  -0.67449  -0.66956  -0.66888
 Alpha  occ. eigenvalues --   -0.66668  -0.66563  -0.63647  -0.62774  -0.59518
 Alpha  occ. eigenvalues --   -0.59276  -0.54276  -0.53957  -0.53800  -0.51460
 Alpha  occ. eigenvalues --   -0.51145  -0.50083  -0.49371  -0.46976  -0.46779
 Alpha  occ. eigenvalues --   -0.45524  -0.45243  -0.44789  -0.44534  -0.44508
 Alpha  occ. eigenvalues --   -0.44152  -0.43834  -0.43692  -0.43055  -0.42957
 Alpha  occ. eigenvalues --   -0.42663  -0.42431  -0.42118  -0.42006  -0.41455
 Alpha  occ. eigenvalues --   -0.41284  -0.41053  -0.40309  -0.39905  -0.39017
 Alpha  occ. eigenvalues --   -0.38824  -0.38703  -0.38538  -0.37675  -0.37360
 Alpha  occ. eigenvalues --   -0.37179  -0.37113  -0.37031  -0.36838  -0.36591
 Alpha  occ. eigenvalues --   -0.36184  -0.35764  -0.35452  -0.35392  -0.34703
 Alpha  occ. eigenvalues --   -0.34366  -0.34032  -0.33594  -0.32928  -0.32621
 Alpha  occ. eigenvalues --   -0.32494  -0.32211  -0.32038  -0.31591  -0.31435
 Alpha  occ. eigenvalues --   -0.30754  -0.29845  -0.29281  -0.29071  -0.28793
 Alpha  occ. eigenvalues --   -0.28608  -0.27686  -0.26366  -0.26244  -0.25160
 Alpha  occ. eigenvalues --   -0.24155  -0.21767  -0.19925  -0.16006
 Alpha virt. eigenvalues --   -0.03802  -0.02286  -0.02151   0.00905   0.01725
 Alpha virt. eigenvalues --    0.04515   0.04792   0.05514   0.06266   0.06276
 Alpha virt. eigenvalues --    0.07411   0.07676   0.07990   0.08302   0.08566
 Alpha virt. eigenvalues --    0.08747   0.09262   0.09750   0.10127   0.10456
 Alpha virt. eigenvalues --    0.10665   0.11010   0.11395   0.11910   0.12356
 Alpha virt. eigenvalues --    0.12386   0.12794   0.13449   0.13614   0.13664
 Alpha virt. eigenvalues --    0.13957   0.14092   0.14127   0.14932   0.14957
 Alpha virt. eigenvalues --    0.15300   0.15509   0.16137   0.16317   0.16659
 Alpha virt. eigenvalues --    0.16879   0.17121   0.17559   0.17747   0.17995
 Alpha virt. eigenvalues --    0.18025   0.18543   0.18817   0.19286   0.19929
 Alpha virt. eigenvalues --    0.20234   0.20297   0.20756   0.20859   0.21191
 Alpha virt. eigenvalues --    0.21246   0.21366   0.21711   0.21848   0.22295
 Alpha virt. eigenvalues --    0.22803   0.23303   0.23575   0.24389   0.24712
 Alpha virt. eigenvalues --    0.24882   0.25386   0.25806   0.26106   0.26246
 Alpha virt. eigenvalues --    0.26847   0.27540   0.28117   0.28825   0.29914
 Alpha virt. eigenvalues --    0.30853   0.31363   0.31630   0.32682   0.34600
 Alpha virt. eigenvalues --    0.35690   0.36058   0.36517   0.37962   0.39264
 Alpha virt. eigenvalues --    0.39631   0.39938   0.40673   0.40787   0.41003
 Alpha virt. eigenvalues --    0.41360   0.41808   0.42509   0.43092   0.43138
 Alpha virt. eigenvalues --    0.43655   0.44184   0.44968   0.45650   0.45786
 Alpha virt. eigenvalues --    0.46434   0.46840   0.48316   0.48791   0.49022
 Alpha virt. eigenvalues --    0.49329   0.50259   0.51924   0.52485   0.52676
 Alpha virt. eigenvalues --    0.52793   0.53562   0.53585   0.54115   0.54409
 Alpha virt. eigenvalues --    0.54603   0.55689   0.56118   0.56676   0.57610
 Alpha virt. eigenvalues --    0.58277   0.58316   0.58506   0.59142   0.59596
 Alpha virt. eigenvalues --    0.59948   0.60230   0.60648   0.61284   0.61475
 Alpha virt. eigenvalues --    0.62109   0.62273   0.62432   0.63078   0.63313
 Alpha virt. eigenvalues --    0.63533   0.63778   0.64551   0.64684   0.64942
 Alpha virt. eigenvalues --    0.65366   0.65447   0.65797   0.65975   0.66070
 Alpha virt. eigenvalues --    0.66280   0.66473   0.66792   0.67244   0.67336
 Alpha virt. eigenvalues --    0.67547   0.67932   0.68225   0.68500   0.68651
 Alpha virt. eigenvalues --    0.68843   0.68965   0.69203   0.69424   0.69568
 Alpha virt. eigenvalues --    0.69936   0.70610   0.70657   0.70918   0.71202
 Alpha virt. eigenvalues --    0.71365   0.71440   0.71539   0.72302   0.72696
 Alpha virt. eigenvalues --    0.72702   0.72950   0.73319   0.73531   0.73546
 Alpha virt. eigenvalues --    0.73707   0.73959   0.74552   0.74927   0.75232
 Alpha virt. eigenvalues --    0.75385   0.75691   0.76115   0.76377   0.76693
 Alpha virt. eigenvalues --    0.76996   0.77627   0.78167   0.78319   0.78704
 Alpha virt. eigenvalues --    0.78768   0.79431   0.79765   0.80552   0.80662
 Alpha virt. eigenvalues --    0.81051   0.81452   0.81782   0.82290   0.82452
 Alpha virt. eigenvalues --    0.82995   0.83326   0.83708   0.84425   0.85045
 Alpha virt. eigenvalues --    0.85698   0.86218   0.86835   0.87451   0.87994
 Alpha virt. eigenvalues --    0.88705   0.89499   0.89597   0.90190   0.91323
 Alpha virt. eigenvalues --    0.91918   0.92073   0.93484   0.94719   0.95235
 Alpha virt. eigenvalues --    0.96070   0.96178   0.97705   0.99437   1.00280
 Alpha virt. eigenvalues --    1.01956   1.02325   1.03010   1.03250   1.03773
 Alpha virt. eigenvalues --    1.04733   1.05437   1.06450   1.06505   1.07644
 Alpha virt. eigenvalues --    1.08206   1.08541   1.09684   1.10690   1.11728
 Alpha virt. eigenvalues --    1.12380   1.12892   1.13601   1.14959   1.16097
 Alpha virt. eigenvalues --    1.16556   1.17106   1.17375   1.18754   1.19108
 Alpha virt. eigenvalues --    1.19571   1.20454   1.20934   1.21192   1.22223
 Alpha virt. eigenvalues --    1.22926   1.23392   1.24233   1.24750   1.24870
 Alpha virt. eigenvalues --    1.25776   1.26080   1.27363   1.28126   1.28852
 Alpha virt. eigenvalues --    1.29547   1.29962   1.30261   1.30727   1.31485
 Alpha virt. eigenvalues --    1.32256   1.33261   1.34654   1.35956   1.37497
 Alpha virt. eigenvalues --    1.37818   1.39319   1.42076   1.43923   1.44577
 Alpha virt. eigenvalues --    1.47104   1.48289   1.49488   1.49697   1.50190
 Alpha virt. eigenvalues --    1.51744   1.51847   1.53034   1.53343   1.53695
 Alpha virt. eigenvalues --    1.54199   1.54459   1.54792   1.55417   1.55945
 Alpha virt. eigenvalues --    1.56298   1.56597   1.56750   1.57441   1.57910
 Alpha virt. eigenvalues --    1.58446   1.58624   1.58839   1.59173   1.59487
 Alpha virt. eigenvalues --    1.59703   1.60281   1.61163   1.61728   1.62161
 Alpha virt. eigenvalues --    1.62675   1.63320   1.63769   1.64302   1.64769
 Alpha virt. eigenvalues --    1.65512   1.65861   1.66443   1.66565   1.67255
 Alpha virt. eigenvalues --    1.67963   1.68720   1.69677   1.69951   1.70999
 Alpha virt. eigenvalues --    1.72154   1.72852   1.74012   1.74691   1.75607
 Alpha virt. eigenvalues --    1.76452   1.76906   1.77088   1.77465   1.77612
 Alpha virt. eigenvalues --    1.78511   1.78929   1.79113   1.79292   1.79338
 Alpha virt. eigenvalues --    1.79667   1.80232   1.80418   1.81163   1.81487
 Alpha virt. eigenvalues --    1.81675   1.82512   1.82763   1.83386   1.83731
 Alpha virt. eigenvalues --    1.83962   1.84557   1.84578   1.84884   1.85327
 Alpha virt. eigenvalues --    1.85807   1.86103   1.86282   1.86666   1.87098
 Alpha virt. eigenvalues --    1.87395   1.87920   1.88398   1.88820   1.89180
 Alpha virt. eigenvalues --    1.89475   1.90648   1.90711   1.91379   1.91677
 Alpha virt. eigenvalues --    1.92611   1.92844   1.93132   1.93532   1.93710
 Alpha virt. eigenvalues --    1.94084   1.94177   1.94413   1.94780   1.94892
 Alpha virt. eigenvalues --    1.95481   1.95869   1.96163   1.96230   1.97047
 Alpha virt. eigenvalues --    1.97757   1.98255   1.98762   1.99081   1.99605
 Alpha virt. eigenvalues --    1.99939   2.00731   2.00967   2.01187   2.01766
 Alpha virt. eigenvalues --    2.02489   2.02551   2.03091   2.03842   2.03965
 Alpha virt. eigenvalues --    2.04457   2.06195   2.07610   2.08232   2.09872
 Alpha virt. eigenvalues --    2.11011   2.12182   2.15130   2.15868   2.16192
 Alpha virt. eigenvalues --    2.16700   2.16950   2.17664   2.17933   2.18407
 Alpha virt. eigenvalues --    2.18627   2.18981   2.19226   2.19735   2.20130
 Alpha virt. eigenvalues --    2.20634   2.20969   2.21563   2.22326   2.22726
 Alpha virt. eigenvalues --    2.22818   2.23355   2.24197   2.24326   2.24986
 Alpha virt. eigenvalues --    2.25248   2.27373   2.28326   2.28920   2.29947
 Alpha virt. eigenvalues --    2.30786   2.35213   2.38111   2.38567   2.38991
 Alpha virt. eigenvalues --    2.39336   2.40093   2.40665   2.41006   2.41371
 Alpha virt. eigenvalues --    2.42184   2.42257   2.42692   2.43019   2.43323
 Alpha virt. eigenvalues --    2.44463   2.44961   2.45979   2.47118   2.47244
 Alpha virt. eigenvalues --    2.47741   2.49016   2.50331   2.51400   2.52312
 Alpha virt. eigenvalues --    2.55325   2.55603   2.56021   2.56325   2.56475
 Alpha virt. eigenvalues --    2.56555   2.56753   2.57574   2.58416   2.61390
 Alpha virt. eigenvalues --    2.62205   2.62517   2.62844   2.63040   2.63547
 Alpha virt. eigenvalues --    2.63776   2.63921   2.64098   2.64363   2.64997
 Alpha virt. eigenvalues --    2.65124   2.65369   2.66027   2.66079   2.67741
 Alpha virt. eigenvalues --    2.69333   2.72498   2.72793   2.72947   2.73232
 Alpha virt. eigenvalues --    2.73862   2.74257   2.74995   2.76376   2.80635
 Alpha virt. eigenvalues --    2.81697   2.84284   2.86212   2.87023   2.87316
 Alpha virt. eigenvalues --    2.87814   2.88050   2.88606   2.89100   2.89385
 Alpha virt. eigenvalues --    2.89588   2.89854   2.90945   2.91445   2.92945
 Alpha virt. eigenvalues --    2.93131   2.93714   2.94454   2.95023   2.95731
 Alpha virt. eigenvalues --    2.95894   2.96257   2.96618   2.97021   2.97236
 Alpha virt. eigenvalues --    2.97739   2.98307   2.99063   2.99574   2.99961
 Alpha virt. eigenvalues --    3.02175   3.02410   3.03037   3.04153   3.05084
 Alpha virt. eigenvalues --    3.05935   3.06982   3.07393   3.08078   3.08980
 Alpha virt. eigenvalues --    3.09006   3.09798   3.10014   3.11301   3.12134
 Alpha virt. eigenvalues --    3.12686   3.14532   3.19291   3.20416   3.36602
 Alpha virt. eigenvalues --    3.62159   3.73719   3.79997   3.87557  45.27449
  Beta  occ. eigenvalues --  -77.07798 -77.07522 -19.17432 -19.06604 -19.06385
  Beta  occ. eigenvalues --  -14.33389 -10.26392 -10.23843 -10.23809 -10.20704
  Beta  occ. eigenvalues --  -10.20689 -10.20597 -10.20438 -10.20275 -10.19517
  Beta  occ. eigenvalues --  -10.19513 -10.19327 -10.19284 -10.17554 -10.17391
  Beta  occ. eigenvalues --  -10.17368 -10.17309 -10.17305 -10.17223 -10.17193
  Beta  occ. eigenvalues --  -10.17166 -10.17046 -10.17041 -10.16893 -10.16405
  Beta  occ. eigenvalues --   -6.56980  -6.56711  -4.73603  -4.73551  -4.73336
  Beta  occ. eigenvalues --   -4.73282  -4.73251  -4.72977  -2.99062  -1.85168
  Beta  occ. eigenvalues --   -1.81547  -1.80471  -1.07804  -0.95029  -0.88347
  Beta  occ. eigenvalues --   -0.86194  -0.82130  -0.81585  -0.79739  -0.79682
  Beta  occ. eigenvalues --   -0.79464  -0.79217  -0.73435  -0.69821  -0.67906
  Beta  occ. eigenvalues --   -0.67797  -0.67708  -0.67446  -0.66952  -0.66877
  Beta  occ. eigenvalues --   -0.66655  -0.66561  -0.63505  -0.62653  -0.59405
  Beta  occ. eigenvalues --   -0.59157  -0.54255  -0.54064  -0.53888  -0.51397
  Beta  occ. eigenvalues --   -0.51068  -0.49987  -0.49324  -0.46931  -0.46763
  Beta  occ. eigenvalues --   -0.45446  -0.45202  -0.44720  -0.44491  -0.44403
  Beta  occ. eigenvalues --   -0.44141  -0.43805  -0.43658  -0.43118  -0.42946
  Beta  occ. eigenvalues --   -0.42626  -0.42461  -0.42141  -0.41998  -0.41496
  Beta  occ. eigenvalues --   -0.41293  -0.41065  -0.40032  -0.39866  -0.38992
  Beta  occ. eigenvalues --   -0.38758  -0.38538  -0.38138  -0.37661  -0.37343
  Beta  occ. eigenvalues --   -0.37160  -0.37081  -0.37028  -0.36810  -0.36558
  Beta  occ. eigenvalues --   -0.36173  -0.35748  -0.35446  -0.35386  -0.34595
  Beta  occ. eigenvalues --   -0.34317  -0.33875  -0.33503  -0.32914  -0.32605
  Beta  occ. eigenvalues --   -0.32261  -0.32166  -0.31967  -0.31305  -0.30166
  Beta  occ. eigenvalues --   -0.29351  -0.29042  -0.28736  -0.28285  -0.27414
  Beta  occ. eigenvalues --   -0.27054  -0.25640  -0.25154  -0.24761  -0.24454
  Beta  occ. eigenvalues --   -0.22108  -0.20184
  Beta virt. eigenvalues --   -0.08324  -0.04318  -0.03593  -0.02260   0.00296
  Beta virt. eigenvalues --    0.01433   0.02054   0.04573   0.05173   0.05941
  Beta virt. eigenvalues --    0.06289   0.06809   0.07461   0.07825   0.08108
  Beta virt. eigenvalues --    0.08356   0.08688   0.08808   0.09384   0.09788
  Beta virt. eigenvalues --    0.10162   0.10522   0.10704   0.11073   0.11425
  Beta virt. eigenvalues --    0.11927   0.12383   0.12454   0.12913   0.13524
  Beta virt. eigenvalues --    0.13694   0.13732   0.14014   0.14123   0.14182
  Beta virt. eigenvalues --    0.14962   0.15001   0.15328   0.15554   0.16212
  Beta virt. eigenvalues --    0.16382   0.16704   0.16978   0.17210   0.17588
  Beta virt. eigenvalues --    0.17775   0.18023   0.18114   0.18589   0.18830
  Beta virt. eigenvalues --    0.19363   0.19995   0.20285   0.20370   0.20819
  Beta virt. eigenvalues --    0.20942   0.21239   0.21327   0.21419   0.21752
  Beta virt. eigenvalues --    0.21899   0.22414   0.22856   0.23344   0.23761
  Beta virt. eigenvalues --    0.24434   0.24762   0.24967   0.25455   0.25910
  Beta virt. eigenvalues --    0.26252   0.26367   0.27029   0.27600   0.28291
  Beta virt. eigenvalues --    0.29039   0.30191   0.30971   0.31502   0.31733
  Beta virt. eigenvalues --    0.32947   0.34735   0.35933   0.36307   0.36872
  Beta virt. eigenvalues --    0.38204   0.39512   0.39746   0.40018   0.40741
  Beta virt. eigenvalues --    0.40905   0.41150   0.41528   0.41949   0.42726
  Beta virt. eigenvalues --    0.43202   0.43258   0.43789   0.44279   0.45048
  Beta virt. eigenvalues --    0.45731   0.45877   0.46509   0.46990   0.48490
  Beta virt. eigenvalues --    0.49044   0.49177   0.49644   0.50408   0.52066
  Beta virt. eigenvalues --    0.52648   0.52882   0.52991   0.53631   0.53648
  Beta virt. eigenvalues --    0.54248   0.54627   0.54696   0.55785   0.56180
  Beta virt. eigenvalues --    0.56772   0.57688   0.58346   0.58447   0.58684
  Beta virt. eigenvalues --    0.59239   0.59658   0.60026   0.60393   0.60695
  Beta virt. eigenvalues --    0.61359   0.61505   0.62234   0.62398   0.62660
  Beta virt. eigenvalues --    0.63162   0.63339   0.63617   0.63837   0.64601
  Beta virt. eigenvalues --    0.64738   0.64976   0.65401   0.65504   0.65845
  Beta virt. eigenvalues --    0.66015   0.66118   0.66333   0.66536   0.66828
  Beta virt. eigenvalues --    0.67266   0.67446   0.67615   0.67974   0.68296
  Beta virt. eigenvalues --    0.68537   0.68694   0.68899   0.69000   0.69279
  Beta virt. eigenvalues --    0.69474   0.69664   0.70024   0.70647   0.70692
  Beta virt. eigenvalues --    0.70957   0.71276   0.71451   0.71546   0.71564
  Beta virt. eigenvalues --    0.72343   0.72735   0.72794   0.73023   0.73378
  Beta virt. eigenvalues --    0.73557   0.73577   0.73759   0.74034   0.74640
  Beta virt. eigenvalues --    0.75024   0.75346   0.75458   0.75772   0.76196
  Beta virt. eigenvalues --    0.76464   0.76779   0.77096   0.77694   0.78209
  Beta virt. eigenvalues --    0.78407   0.78793   0.78819   0.79516   0.79861
  Beta virt. eigenvalues --    0.80622   0.80735   0.81134   0.81583   0.81820
  Beta virt. eigenvalues --    0.82381   0.82579   0.83108   0.83370   0.83824
  Beta virt. eigenvalues --    0.84473   0.85119   0.85781   0.86352   0.86982
  Beta virt. eigenvalues --    0.87570   0.88148   0.88776   0.89642   0.89767
  Beta virt. eigenvalues --    0.90337   0.91394   0.92073   0.92237   0.93616
  Beta virt. eigenvalues --    0.94901   0.95352   0.96276   0.96388   0.97879
  Beta virt. eigenvalues --    0.99610   1.00623   1.02112   1.02548   1.03111
  Beta virt. eigenvalues --    1.03426   1.03999   1.04905   1.05512   1.06528
  Beta virt. eigenvalues --    1.06802   1.07702   1.08368   1.08743   1.09894
  Beta virt. eigenvalues --    1.10811   1.11822   1.12506   1.12961   1.13796
  Beta virt. eigenvalues --    1.15146   1.16193   1.16626   1.17154   1.17551
  Beta virt. eigenvalues --    1.18853   1.19257   1.19726   1.20574   1.21139
  Beta virt. eigenvalues --    1.21244   1.22347   1.23113   1.23550   1.24298
  Beta virt. eigenvalues --    1.24857   1.24910   1.25873   1.26148   1.27410
  Beta virt. eigenvalues --    1.28213   1.28953   1.29673   1.30247   1.30572
  Beta virt. eigenvalues --    1.30976   1.31554   1.32473   1.33393   1.34828
  Beta virt. eigenvalues --    1.36193   1.37565   1.37928   1.39454   1.42218
  Beta virt. eigenvalues --    1.43995   1.44722   1.47244   1.48375   1.49540
  Beta virt. eigenvalues --    1.49805   1.50260   1.51883   1.51932   1.53146
  Beta virt. eigenvalues --    1.53441   1.53739   1.54235   1.54512   1.54855
  Beta virt. eigenvalues --    1.55484   1.56008   1.56346   1.56668   1.56785
  Beta virt. eigenvalues --    1.57496   1.57979   1.58501   1.58673   1.58881
  Beta virt. eigenvalues --    1.59208   1.59508   1.59759   1.60341   1.61213
  Beta virt. eigenvalues --    1.61826   1.62223   1.62843   1.63446   1.63877
  Beta virt. eigenvalues --    1.64496   1.64942   1.65607   1.65942   1.66558
  Beta virt. eigenvalues --    1.66649   1.67783   1.68114   1.69015   1.69857
  Beta virt. eigenvalues --    1.70480   1.71033   1.72314   1.72939   1.74072
  Beta virt. eigenvalues --    1.74751   1.75800   1.76513   1.76986   1.77174
  Beta virt. eigenvalues --    1.77499   1.77658   1.78577   1.79035   1.79150
  Beta virt. eigenvalues --    1.79388   1.79499   1.79736   1.80339   1.80636
  Beta virt. eigenvalues --    1.81288   1.81564   1.81735   1.82561   1.82806
  Beta virt. eigenvalues --    1.83512   1.83843   1.84358   1.84648   1.84674
  Beta virt. eigenvalues --    1.84950   1.85494   1.85855   1.86259   1.86339
  Beta virt. eigenvalues --    1.86787   1.87171   1.87527   1.88147   1.88915
  Beta virt. eigenvalues --    1.89578   1.90675   1.90902   1.91491   1.92248
  Beta virt. eigenvalues --    1.92420   1.92674   1.93114   1.93212   1.93720
  Beta virt. eigenvalues --    1.93987   1.94130   1.94321   1.94431   1.95033
  Beta virt. eigenvalues --    1.95205   1.95355   1.95912   1.96126   1.96725
  Beta virt. eigenvalues --    1.97066   1.97312   1.98158   1.98542   1.99161
  Beta virt. eigenvalues --    1.99297   1.99955   2.00358   2.00766   2.01111
  Beta virt. eigenvalues --    2.01457   2.01919   2.02566   2.02658   2.03981
  Beta virt. eigenvalues --    2.04109   2.04521   2.06638   2.07739   2.08750
  Beta virt. eigenvalues --    2.09796   2.10341   2.11729   2.12922   2.15322
  Beta virt. eigenvalues --    2.15909   2.16237   2.16742   2.17034   2.17705
  Beta virt. eigenvalues --    2.18037   2.18440   2.18670   2.19065   2.19294
  Beta virt. eigenvalues --    2.19842   2.20203   2.20695   2.21033   2.21650
  Beta virt. eigenvalues --    2.22395   2.22819   2.22908   2.23389   2.24274
  Beta virt. eigenvalues --    2.24414   2.25077   2.25386   2.27434   2.28368
  Beta virt. eigenvalues --    2.29228   2.30039   2.32305   2.35265   2.38175
  Beta virt. eigenvalues --    2.38630   2.39010   2.39364   2.40155   2.40727
  Beta virt. eigenvalues --    2.41041   2.41404   2.42216   2.42290   2.42744
  Beta virt. eigenvalues --    2.43032   2.43374   2.44504   2.45092   2.45998
  Beta virt. eigenvalues --    2.47177   2.47290   2.47772   2.49032   2.50381
  Beta virt. eigenvalues --    2.51435   2.52332   2.55346   2.55621   2.56053
  Beta virt. eigenvalues --    2.56350   2.56498   2.56582   2.56779   2.57593
  Beta virt. eigenvalues --    2.58441   2.61406   2.62177   2.62493   2.62854
  Beta virt. eigenvalues --    2.63060   2.63560   2.63790   2.63949   2.64121
  Beta virt. eigenvalues --    2.64371   2.64785   2.65015   2.65388   2.65947
  Beta virt. eigenvalues --    2.66232   2.67631   2.69387   2.72596   2.72912
  Beta virt. eigenvalues --    2.72989   2.73373   2.74016   2.74362   2.75768
  Beta virt. eigenvalues --    2.76823   2.80777   2.81846   2.84325   2.86310
  Beta virt. eigenvalues --    2.87123   2.87420   2.87829   2.88371   2.88730
  Beta virt. eigenvalues --    2.89150   2.89401   2.89839   2.90013   2.90963
  Beta virt. eigenvalues --    2.91484   2.92961   2.93144   2.93776   2.94470
  Beta virt. eigenvalues --    2.95084   2.95791   2.95925   2.96352   2.96682
  Beta virt. eigenvalues --    2.97031   2.97335   2.97890   2.98361   2.99085
  Beta virt. eigenvalues --    2.99642   3.00060   3.02194   3.02424   3.03883
  Beta virt. eigenvalues --    3.04229   3.05165   3.06014   3.07006   3.07635
  Beta virt. eigenvalues --    3.08238   3.09014   3.09251   3.09822   3.10022
  Beta virt. eigenvalues --    3.11307   3.12144   3.12706   3.14660   3.19063
  Beta virt. eigenvalues --    3.20223   3.36913   3.62277   3.73640   3.80529
  Beta virt. eigenvalues --    3.87590  45.14793
          Condensed to atoms (all electrons):
          Atomic-Atomic Spin Densities.
 Mulliken charges and spin densities:
               1          2
     1  P    0.269309   0.100447
     2  N   -0.117588   0.066421
     3  C    0.019152   0.004969
     4  H    0.059947   0.000719
     5  H    0.090588  -0.000190
     6  O   -0.540471  -0.003762
     7  P    0.271227   0.104536
     8  C   -0.047129  -0.005881
     9  C   -0.002741   0.005314
    10  H    0.009074   0.001279
    11  C    0.065658  -0.005165
    12  H    0.022484   0.000113
    13  C   -0.006024   0.005312
    14  H    0.008623   0.001304
    15  C   -0.038881  -0.005933
    16  C    0.014031   0.005992
    17  H    0.062012   0.000864
    18  H    0.089785  -0.000225
    19  Ru  -0.023140   1.635914
    20  H    0.170099   0.000850
    21  C   -0.379601   0.003961
    22  C   -0.389558   0.007531
    23  C   -0.387418   0.009716
    24  C   -0.391761   0.002973
    25  C    0.073343  -0.000583
    26  H    0.023924   0.000054
    27  H    0.039834   0.001895
    28  H    0.016272  -0.000145
    29  C    0.082546   0.000007
    30  H    0.012952  -0.000094
    31  H    0.030768   0.002175
    32  H    0.010670   0.000009
    33  C    0.077851   0.000847
    34  H    0.011442   0.001758
    35  H    0.036092  -0.000018
    36  H    0.025514   0.000025
    37  C    0.080837   0.001686
    38  H    0.011618  -0.000065
    39  H    0.014596   0.002494
    40  H    0.024357  -0.000092
    41  C    0.072615  -0.000135
    42  H    0.014588   0.000124
    43  H    0.035724   0.000015
    44  H    0.036533   0.000970
    45  C    0.058162   0.000936
    46  H    0.025143  -0.001415
    47  H    0.035234   0.000125
    48  H    0.018411  -0.000138
    49  C    0.073690   0.000216
    50  H    0.005402  -0.000151
    51  H    0.014107   0.000575
    52  H    0.003986   0.000039
    53  C    0.079182   0.001349
    54  H    0.008960   0.001837
    55  H    0.032816  -0.000039
    56  H    0.025436  -0.000048
    57  C    0.071314  -0.000636
    58  H    0.022268   0.000033
    59  H    0.027639   0.000638
    60  H    0.010790  -0.000047
    61  C    0.077668   0.000067
    62  H    0.041357   0.001270
    63  H    0.021271   0.000096
    64  H    0.012440  -0.000309
    65  C    0.080809   0.001466
    66  H    0.009636  -0.000007
    67  H    0.012772   0.002273
    68  H    0.022212  -0.000082
    69  C    0.069446  -0.000252
    70  H    0.012555   0.000020
    71  H    0.036673   0.000032
    72  H    0.037639   0.001167
    73  O   -0.569517   0.181022
    74  C    0.047318  -0.098094
    75  H    0.172143  -0.000435
    76  O   -0.156715  -0.039493
 Sum of Mulliken charges =  -0.00000   2.00000
 Mulliken charges and spin densities with hydrogens summed into heavy atoms:
               1          2
     1  P    0.269309   0.100447
     2  N   -0.117588   0.066421
     3  C    0.169687   0.005498
     6  O   -0.370372  -0.002912
     7  P    0.271227   0.104536
     8  C   -0.047129  -0.005881
     9  C    0.006332   0.006593
    11  C    0.088141  -0.005051
    13  C    0.002599   0.006617
    15  C   -0.038881  -0.005933
    16  C    0.165828   0.006630
    19  Ru  -0.023140   1.635914
    21  C   -0.379601   0.003961
    22  C   -0.389558   0.007531
    23  C   -0.387418   0.009716
    24  C   -0.391761   0.002973
    25  C    0.153374   0.001221
    29  C    0.136936   0.002097
    33  C    0.150899   0.002612
    37  C    0.131408   0.004023
    41  C    0.159460   0.000973
    45  C    0.136950  -0.000494
    49  C    0.097185   0.000679
    53  C    0.146394   0.003100
    57  C    0.132010  -0.000012
    61  C    0.152736   0.001124
    65  C    0.125430   0.003650
    69  C    0.156312   0.000967
    73  O   -0.397373   0.180587
    74  C    0.047318  -0.098094
    76  O   -0.156715  -0.039493
 Electronic spatial extent (au):  <R**2>=          13799.7950
 Charge=             -0.0000 electrons
 Dipole moment (field-independent basis, Debye):
    X=              2.1820    Y=             14.3362    Z=              0.0910  Tot=             14.5016
 Quadrupole moment (field-independent basis, Debye-Ang):
   XX=           -172.9764   YY=           -229.7239   ZZ=           -232.0084
   XY=             -2.1176   XZ=            -11.9383   YZ=              4.3573
 Traceless Quadrupole moment (field-independent basis, Debye-Ang):
   XX=             38.5931   YY=            -18.1543   ZZ=            -20.4388
   XY=             -2.1176   XZ=            -11.9383   YZ=              4.3573
 Octapole moment (field-independent basis, Debye-Ang**2):
  XXX=             15.2604  YYY=            140.9944  ZZZ=            -17.8767  XYY=              5.0347
  XXY=            -13.9977  XXZ=             -2.0411  XZZ=             14.7037  YZZ=             -7.8355
  YYZ=            -11.0539  XYZ=              5.3793
 Hexadecapole moment (field-independent basis, Debye-Ang**3):
 XXXX=         -10474.2746 YYYY=          -4366.6435 ZZZZ=          -3429.3591 XXXY=            -10.6852
 XXXZ=            -62.3600 YYYX=              3.8629 YYYZ=             54.2267 ZZZX=            -46.4953
 ZZZY=             42.8843 XXYY=          -2486.6081 XXZZ=          -2293.6938 YYZZ=          -1309.1095
 XXYZ=              4.7253 YYXZ=            -78.3089 ZZXY=            -18.1731
 N-N= 4.452300224203D+03 E-N=-1.355895160868D+04  KE= 1.921382080467D+03
                          Isotropic Fermi Contact Couplings
        Atom                 a.u.       MegaHertz       Gauss      10(-4) cm-1
     1  P(31)              0.13237     119.87054      42.77279      39.98451
     2  N(14)              0.17383      28.08218      10.02042       9.36721
     3  C(13)             -0.00432      -2.42828      -0.86647      -0.80999
     4  H(1)               0.00037       0.81746       0.29169       0.27268
     5  H(1)              -0.00007      -0.16628      -0.05933      -0.05546
     6  O(17)              0.00332      -1.00579      -0.35889      -0.33550
     7  P(31)              0.12662     114.66275      40.91452      38.24738
     8  C(13)             -0.00568      -3.19044      -1.13843      -1.06422
     9  C(13)              0.00663       3.72769       1.33013       1.24342
    10  H(1)               0.00020       0.44505       0.15881       0.14845
    11  C(13)             -0.00106      -0.59805      -0.21340      -0.19949
    12  H(1)               0.00004       0.08557       0.03053       0.02854
    13  C(13)              0.00661       3.71537       1.32574       1.23932
    14  H(1)               0.00021       0.46800       0.16699       0.15611
    15  C(13)             -0.00573      -3.22111      -1.14937      -1.07445
    16  C(13)             -0.00372      -2.09278      -0.74676      -0.69808
    17  H(1)               0.00039       0.86752       0.30955       0.28937
    18  H(1)              -0.00016      -0.35433      -0.12644      -0.11819
    19  Ru(99)            -0.00002       0.00155       0.00055       0.00052
    20  H(1)               0.00064       1.42357       0.50797       0.47485
    21  C(13)              0.00508       2.85363       1.01825       0.95187
    22  C(13)              0.00845       4.75079       1.69520       1.58469
    23  C(13)              0.01071       6.02153       2.14863       2.00857
    24  C(13)              0.00447       2.51491       0.89738       0.83888
    25  C(13)             -0.00044      -0.24888      -0.08881      -0.08302
    26  H(1)              -0.00000      -0.00353      -0.00126      -0.00118
    27  H(1)               0.00002       0.03574       0.01275       0.01192
    28  H(1)              -0.00004      -0.09572      -0.03416      -0.03193
    29  C(13)              0.00115       0.64558       0.23036       0.21534
    30  H(1)              -0.00002      -0.04499      -0.01605      -0.01501
    31  H(1)              -0.00002      -0.04382      -0.01564      -0.01462
    32  H(1)              -0.00000      -0.01052      -0.00375      -0.00351
    33  C(13)              0.00291       1.63575       0.58368       0.54563
    34  H(1)               0.00056       1.25722       0.44861       0.41936
    35  H(1)               0.00002       0.03435       0.01226       0.01146
    36  H(1)               0.00005       0.11038       0.03939       0.03682
    37  C(13)              0.00410       2.30522       0.82256       0.76894
    38  H(1)               0.00002       0.03862       0.01378       0.01288
    39  H(1)               0.00082       1.83017       0.65305       0.61048
    40  H(1)               0.00001       0.01878       0.00670       0.00626
    41  C(13)             -0.00038      -0.21332      -0.07612      -0.07115
    42  H(1)               0.00003       0.06836       0.02439       0.02280
    43  H(1)              -0.00000      -0.00291      -0.00104      -0.00097
    44  H(1)              -0.00002      -0.04102      -0.01464      -0.01368
    45  C(13)             -0.00044      -0.24827      -0.08859      -0.08281
    46  H(1)               0.00002       0.04596       0.01640       0.01533
    47  H(1)               0.00002       0.04657       0.01662       0.01553
    48  H(1)              -0.00004      -0.08761      -0.03126      -0.02922
    49  C(13)              0.00024       0.13675       0.04880       0.04562
    50  H(1)              -0.00004      -0.08195      -0.02924      -0.02734
    51  H(1)               0.00000       0.00048       0.00017       0.00016
    52  H(1)               0.00000       0.00971       0.00347       0.00324
    53  C(13)              0.00394       2.21369       0.78990       0.73841
    54  H(1)               0.00055       1.23894       0.44208       0.41327
    55  H(1)               0.00000       0.00448       0.00160       0.00150
    56  H(1)               0.00002       0.04340       0.01549       0.01448
    57  C(13)             -0.00066      -0.37333      -0.13321      -0.12453
    58  H(1)              -0.00001      -0.02830      -0.01010      -0.00944
    59  H(1)               0.00004       0.09933       0.03544       0.03313
    60  H(1)              -0.00001      -0.01376      -0.00491      -0.00459
    61  C(13)              0.00054       0.30580       0.10912       0.10200
    62  H(1)              -0.00002      -0.04998      -0.01783      -0.01667
    63  H(1)              -0.00000      -0.00686      -0.00245      -0.00229
    64  H(1)              -0.00010      -0.23389      -0.08346      -0.07802
    65  C(13)              0.00373       2.09692       0.74823       0.69946
    66  H(1)               0.00003       0.07635       0.02724       0.02547
    67  H(1)               0.00077       1.72601       0.61588       0.57573
    68  H(1)               0.00001       0.01717       0.00613       0.00573
    69  C(13)             -0.00032      -0.18015      -0.06428      -0.06009
    70  H(1)               0.00001       0.01624       0.00579       0.00542
    71  H(1)               0.00001       0.01353       0.00483       0.00451
    72  H(1)              -0.00003      -0.05791      -0.02066      -0.01932
    73  O(17)              0.15691     -47.56018     -16.97066     -15.86437
    74  C(13)             -0.05447     -30.61985     -10.92593     -10.21368
    75  H(1)              -0.00246      -5.50682      -1.96497      -1.83688
    76  O(17)             -0.01709       5.17969       1.84824       1.72776
 --------------------------------------------------------
       Center         ----  Spin Dipole Couplings  ----
                      3XX-RR        3YY-RR        3ZZ-RR
 --------------------------------------------------------
     1   Atom        0.095763     -0.000496     -0.095267
     2   Atom       -0.107461      0.199035     -0.091573
     3   Atom        0.000801      0.009967     -0.010767
     4   Atom        0.001749      0.001700     -0.003449
     5   Atom       -0.000752      0.000139      0.000614
     6   Atom        0.016051      0.009851     -0.025902
     7   Atom        0.096250      0.004483     -0.100733
     8   Atom        0.003916      0.010591     -0.014507
     9   Atom       -0.004367      0.007170     -0.002803
    10   Atom       -0.000850      0.002659     -0.001809
    11   Atom       -0.001067      0.006649     -0.005582
    12   Atom       -0.000861      0.002042     -0.001181
    13   Atom       -0.004458      0.007135     -0.002677
    14   Atom       -0.000922      0.002601     -0.001679
    15   Atom        0.000901      0.010431     -0.011332
    16   Atom        0.000010      0.010375     -0.010385
    17   Atom        0.001635      0.001753     -0.003388
    18   Atom       -0.001026     -0.000304      0.001330
    19   Atom        0.239681      0.351506     -0.591187
    20   Atom       -0.011638     -0.011206      0.022844
    21   Atom        0.004070     -0.004906      0.000836
    22   Atom        0.011541     -0.008326     -0.003215
    23   Atom        0.014462     -0.009424     -0.005038
    24   Atom        0.003240     -0.004732      0.001492
    25   Atom       -0.000457     -0.000229      0.000686
    26   Atom       -0.000431      0.001948     -0.001517
    27   Atom       -0.003658     -0.001135      0.004793
    28   Atom       -0.000496     -0.000650      0.001146
    29   Atom        0.002395     -0.003853      0.001459
    30   Atom        0.000224     -0.001962      0.001738
    31   Atom        0.000093     -0.004685      0.004592
    32   Atom        0.002777     -0.002276     -0.000501
    33   Atom        0.004684     -0.001576     -0.003107
    34   Atom        0.001175     -0.000844     -0.000331
    35   Atom        0.003188     -0.001603     -0.001586
    36   Atom        0.001767      0.000039     -0.001806
    37   Atom        0.005062     -0.003375     -0.001687
    38   Atom        0.003299     -0.001435     -0.001864
    39   Atom        0.002120     -0.001240     -0.000880
    40   Atom        0.001670     -0.001350     -0.000321
    41   Atom        0.005586     -0.001826     -0.003761
    42   Atom        0.003001     -0.000959     -0.002042
    43   Atom        0.004207     -0.001927     -0.002280
    44   Atom        0.006407     -0.001216     -0.005190
    45   Atom        0.002731     -0.004790      0.002060
    46   Atom        0.002274     -0.003481      0.001207
    47   Atom        0.000261     -0.004783      0.004522
    48   Atom        0.001381     -0.001960      0.000580
    49   Atom        0.002597     -0.004069      0.001472
    50   Atom        0.000856     -0.002161      0.001305
    51   Atom        0.000928     -0.006165      0.005238
    52   Atom        0.003596     -0.002705     -0.000890
    53   Atom        0.005849     -0.002107     -0.003742
    54   Atom        0.001368     -0.000945     -0.000423
    55   Atom        0.003431     -0.001707     -0.001725
    56   Atom        0.001946     -0.000084     -0.001862
    57   Atom       -0.000182      0.000115      0.000067
    58   Atom       -0.000303      0.002202     -0.001899
    59   Atom       -0.003819      0.000368      0.003451
    60   Atom       -0.000342     -0.000449      0.000791
    61   Atom        0.001210     -0.004112      0.002902
    62   Atom        0.000269     -0.003508      0.003239
    63   Atom       -0.001263     -0.003917      0.005179
    64   Atom        0.000817     -0.001815      0.000998
    65   Atom        0.004693     -0.003243     -0.001450
    66   Atom        0.003219     -0.001469     -0.001750
    67   Atom        0.001889     -0.001185     -0.000704
    68   Atom        0.001431     -0.001275     -0.000156
    69   Atom        0.005588     -0.001866     -0.003722
    70   Atom        0.002828     -0.000956     -0.001872
    71   Atom        0.004359     -0.001942     -0.002416
    72   Atom        0.006604     -0.001162     -0.005441
    73   Atom        0.192456      0.209691     -0.402146
    74   Atom       -0.038354     -0.054210      0.092564
    75   Atom       -0.031623      0.000137      0.031486
    76   Atom       -0.033619     -0.066530      0.100149
 --------------------------------------------------------
                        XY            XZ            YZ
 --------------------------------------------------------
     1   Atom        0.148054     -0.048514     -0.040134
     2   Atom        0.007460      0.009920      0.014208
     3   Atom        0.001846     -0.002799     -0.003888
     4   Atom        0.004111     -0.001509     -0.001949
     5   Atom        0.004795     -0.005160     -0.006305
     6   Atom        0.016828     -0.009076     -0.016131
     7   Atom       -0.154415     -0.048208      0.038066
     8   Atom        0.010106     -0.007849     -0.003385
     9   Atom        0.001406      0.001305     -0.000587
    10   Atom        0.001932     -0.000445     -0.000850
    11   Atom        0.000195     -0.002839      0.000441
    12   Atom        0.000059     -0.000151      0.000146
    13   Atom       -0.001507      0.001169      0.000428
    14   Atom       -0.001796     -0.000541      0.001140
    15   Atom       -0.008887     -0.010692      0.006230
    16   Atom       -0.001229     -0.003244      0.004450
    17   Atom       -0.004031     -0.001648      0.002119
    18   Atom       -0.003872     -0.004965      0.006246
    19   Atom        0.001104     -0.012494      0.050312
    20   Atom       -0.001509     -0.010373      0.005070
    21   Atom       -0.007316      0.010621     -0.006413
    22   Atom        0.006165     -0.014301     -0.005192
    23   Atom       -0.007875     -0.015204      0.005926
    24   Atom        0.006153      0.009999      0.005835
    25   Atom        0.003254      0.004006      0.004385
    26   Atom        0.003223      0.002280      0.003282
    27   Atom        0.002652      0.005181      0.008158
    28   Atom        0.001373      0.002229      0.002353
    29   Atom        0.000409      0.006048      0.000187
    30   Atom        0.000368      0.003071      0.000379
    31   Atom       -0.000654      0.008426     -0.001816
    32   Atom       -0.000623      0.003550     -0.000523
    33   Atom        0.003944      0.002078      0.000958
    34   Atom        0.001375      0.001512      0.000866
    35   Atom        0.001069      0.001121      0.000437
    36   Atom        0.002695      0.000783      0.000410
    37   Atom        0.003345     -0.005231     -0.002008
    38   Atom        0.001703     -0.000970     -0.000024
    39   Atom        0.000009     -0.001993      0.000116
    40   Atom        0.001456     -0.002712     -0.001429
    41   Atom       -0.002564     -0.000689     -0.000064
    42   Atom       -0.001974     -0.001095      0.000363
    43   Atom       -0.001260      0.000850     -0.000261
    44   Atom       -0.005245      0.000995     -0.000554
    45   Atom       -0.001964     -0.006823      0.001978
    46   Atom       -0.005283     -0.009908      0.006178
    47   Atom        0.000321     -0.006594     -0.000117
    48   Atom       -0.001138     -0.003471      0.001359
    49   Atom       -0.000352      0.006086     -0.000006
    50   Atom       -0.000503      0.003268     -0.000353
    51   Atom        0.000564      0.009167      0.001233
    52   Atom        0.000977      0.004031      0.000821
    53   Atom       -0.004363      0.001993     -0.000837
    54   Atom       -0.001476      0.001514     -0.000855
    55   Atom       -0.000932      0.001005     -0.000381
    56   Atom       -0.002771      0.000620     -0.000234
    57   Atom       -0.003773      0.003964     -0.004341
    58   Atom       -0.003504      0.002094     -0.003010
    59   Atom       -0.003883      0.005247     -0.008176
    60   Atom       -0.001761      0.002283     -0.002429
    61   Atom        0.001596     -0.006945     -0.001933
    62   Atom        0.003858     -0.009515     -0.006071
    63   Atom       -0.000174     -0.005751      0.000175
    64   Atom        0.000883     -0.003318     -0.001260
    65   Atom       -0.002956     -0.005070      0.001788
    66   Atom       -0.001577     -0.001112      0.000081
    67   Atom        0.000003     -0.002018     -0.000103
    68   Atom       -0.001323     -0.002732      0.001392
    69   Atom        0.002511     -0.001292     -0.000186
    70   Atom        0.001897     -0.001396     -0.000463
    71   Atom        0.001337      0.000517      0.000229
    72   Atom        0.005513     -0.000041      0.000164
    73   Atom        0.013398     -0.037046      0.060257
    74   Atom       -0.003061      0.005519     -0.005980
    75   Atom        0.000653      0.003843      0.020405
    76   Atom       -0.001678      0.007649     -0.009408
 --------------------------------------------------------


 ---------------------------------------------------------------------------------
              Anisotropic Spin Dipole Couplings in Principal Axis System
 ---------------------------------------------------------------------------------

       Atom             a.u.   MegaHertz   Gauss  10(-4) cm-1        Axes

              Baa    -0.1119   -24.187    -8.630    -8.068 -0.3070  0.6564  0.6891
     1 P(31)  Bbb    -0.1041   -22.509    -8.032    -7.508  0.5283 -0.4848  0.6971
              Bcc     0.2160    46.696    16.662    15.576  0.7916  0.5781 -0.1979
 
              Baa    -0.1122    -4.328    -1.544    -1.444  0.9019 -0.0019 -0.4319
     2 N(14)  Bbb    -0.0877    -3.383    -1.207    -1.128  0.4311 -0.0558  0.9006
              Bcc     0.1999     7.711     2.751     2.572  0.0258  0.9984  0.0495
 
              Baa    -0.0119    -1.603    -0.572    -0.535  0.1903  0.1560  0.9693
     3 C(13)  Bbb     0.0007     0.100     0.036     0.033  0.9562 -0.2532 -0.1470
              Bcc     0.0112     1.503     0.536     0.501  0.2225  0.9547 -0.1973
 
              Baa    -0.0041    -2.192    -0.782    -0.731  0.0420  0.2909  0.9558
     4 H(1)   Bbb    -0.0023    -1.244    -0.444    -0.415  0.7298 -0.6623  0.1695
              Bcc     0.0064     3.436     1.226     1.146  0.6823  0.6905 -0.2401
 
              Baa    -0.0059    -3.173    -1.132    -1.058  0.0987  0.6775  0.7289
     5 H(1)   Bbb    -0.0050    -2.660    -0.949    -0.887  0.8507 -0.4375  0.2914
              Bcc     0.0109     5.833     2.081     1.946 -0.5163 -0.5913  0.6195
 
              Baa    -0.0322     2.334     0.833     0.778  0.0594  0.3364  0.9399
     6 O(17)  Bbb    -0.0028     0.203     0.073     0.068  0.7040 -0.6816  0.1994
              Bcc     0.0351    -2.537    -0.905    -0.846  0.7077  0.6498 -0.2773
 
              Baa    -0.1134   -24.515    -8.747    -8.177 -0.1876 -0.5157  0.8359
     7 P(31)  Bbb    -0.1097   -23.716    -8.462    -7.911  0.5878  0.6229  0.5162
              Bcc     0.2231    48.230    17.210    16.088  0.7869 -0.5883 -0.1863
 
              Baa    -0.0174    -2.335    -0.833    -0.779  0.3511 -0.0135  0.9362
     8 C(13)  Bbb    -0.0021    -0.284    -0.101    -0.095  0.7147 -0.6421 -0.2773
              Bcc     0.0195     2.619     0.935     0.874  0.6049  0.7665 -0.2158
 
              Baa    -0.0053    -0.710    -0.253    -0.237  0.8671 -0.1206 -0.4833
     9 C(13)  Bbb    -0.0021    -0.277    -0.099    -0.093  0.4848 -0.0182  0.8744
              Bcc     0.0074     0.987     0.352     0.329  0.1143  0.9925 -0.0427
 
              Baa    -0.0020    -1.062    -0.379    -0.354  0.2614  0.0673  0.9629
    10 H(1)   Bbb    -0.0017    -0.903    -0.322    -0.301  0.8781 -0.4307 -0.2083
              Bcc     0.0037     1.964     0.701     0.655  0.4007  0.9000 -0.1717
 
              Baa    -0.0070    -0.935    -0.334    -0.312  0.4341 -0.0354  0.9002
    11 C(13)  Bbb     0.0003     0.041     0.014     0.014  0.9008  0.0025 -0.4343
              Bcc     0.0067     0.895     0.319     0.298  0.0131  0.9994  0.0329
 
              Baa    -0.0012    -0.666    -0.238    -0.222  0.3696 -0.0477  0.9280
    12 H(1)   Bbb    -0.0008    -0.427    -0.152    -0.143  0.9290 -0.0003 -0.3700
              Bcc     0.0020     1.094     0.390     0.365  0.0180  0.9989  0.0442
 
              Baa    -0.0052    -0.702    -0.250    -0.234  0.8941  0.1239 -0.4303
    13 C(13)  Bbb    -0.0021    -0.283    -0.101    -0.094  0.4303  0.0284  0.9022
              Bcc     0.0073     0.984     0.351     0.328 -0.1240  0.9919  0.0280
 
              Baa    -0.0020    -1.060    -0.378    -0.354  0.2507 -0.1398  0.9579
    14 H(1)   Bbb    -0.0017    -0.889    -0.317    -0.297  0.8908  0.4207 -0.1717
              Bcc     0.0037     1.949     0.695     0.650 -0.3790  0.8963  0.2301
 
              Baa    -0.0176    -2.358    -0.841    -0.786  0.4861 -0.0399  0.8730
    15 C(13)  Bbb    -0.0021    -0.289    -0.103    -0.096  0.6765  0.6496 -0.3470
              Bcc     0.0197     2.646     0.944     0.883 -0.5533  0.7592  0.3428
 
              Baa    -0.0120    -1.613    -0.576    -0.538  0.2394 -0.1766  0.9547
    16 C(13)  Bbb     0.0004     0.057     0.020     0.019  0.9571  0.2083 -0.2014
              Bcc     0.0116     1.556     0.555     0.519 -0.1633  0.9620  0.2188
 
              Baa    -0.0042    -2.220    -0.792    -0.741  0.0639 -0.2977  0.9525
    17 H(1)   Bbb    -0.0023    -1.221    -0.436    -0.407  0.7390  0.6556  0.1553
              Bcc     0.0064     3.441     1.228     1.148 -0.6707  0.6939  0.2619
 
              Baa    -0.0059    -3.128    -1.116    -1.044  0.2066 -0.6638  0.7189
    18 H(1)   Bbb    -0.0044    -2.369    -0.845    -0.790  0.8495  0.4862  0.2048
              Bcc     0.0103     5.497     1.961     1.834 -0.4854  0.5684  0.6643
 
              Baa    -0.5941    14.556     5.194     4.855  0.0150 -0.0531  0.9985
    19 Ru(99) Bbb     0.2399    -5.878    -2.097    -1.961  0.9999 -0.0030 -0.0152
              Bcc     0.3542    -8.679    -3.097    -2.895  0.0038  0.9986  0.0531
 
              Baa    -0.0145    -7.748    -2.765    -2.584  0.9642  0.0372  0.2626
    20 H(1)   Bbb    -0.0119    -6.373    -2.274    -2.126  0.0010  0.9896 -0.1439
              Bcc     0.0265    14.121     5.039     4.710 -0.2652  0.1390  0.9541
 
              Baa    -0.0092    -1.228    -0.438    -0.410  0.2347  0.9121  0.3361
    21 C(13)  Bbb    -0.0083    -1.111    -0.397    -0.371 -0.6802 -0.0929  0.7271
              Bcc     0.0174     2.339     0.835     0.780  0.6944 -0.3993  0.5987
 
              Baa    -0.0126    -1.688    -0.602    -0.563  0.3608  0.4645  0.8088
    22 C(13)  Bbb    -0.0098    -1.308    -0.467    -0.436 -0.4411  0.8490 -0.2908
              Bcc     0.0223     2.996     1.069     0.999  0.8217  0.2518 -0.5112
 
              Baa    -0.0142    -1.912    -0.682    -0.638  0.2795 -0.5285  0.8016
    23 C(13)  Bbb    -0.0113    -1.510    -0.539    -0.504  0.4646  0.8051  0.3688
              Bcc     0.0255     3.422     1.221     1.141  0.8402 -0.2693 -0.4706
 
              Baa    -0.0082    -1.107    -0.395    -0.369 -0.1205  0.9013 -0.4161
    24 C(13)  Bbb    -0.0076    -1.025    -0.366    -0.342  0.7230 -0.2076 -0.6590
              Bcc     0.0159     2.132     0.761     0.711  0.6803  0.3803  0.6266
 
              Baa    -0.0043    -0.572    -0.204    -0.191 -0.3009 -0.5799  0.7571
    25 C(13)  Bbb    -0.0036    -0.480    -0.171    -0.160  0.7942 -0.5918 -0.1376
              Bcc     0.0078     1.052     0.375     0.351  0.5279  0.5599  0.6387
 
              Baa    -0.0036    -1.906    -0.680    -0.636 -0.2569 -0.3786  0.8892
    26 H(1)   Bbb    -0.0027    -1.428    -0.510    -0.476  0.8221 -0.5694 -0.0049
              Bcc     0.0062     3.334     1.190     1.112  0.5082  0.7297  0.4575
 
              Baa    -0.0072    -3.857    -1.376    -1.287  0.4229  0.6547 -0.6265
    27 H(1)   Bbb    -0.0053    -2.845    -1.015    -0.949  0.8418 -0.5398  0.0042
              Bcc     0.0126     6.702     2.392     2.236  0.3355  0.5292  0.7794
 
              Baa    -0.0023    -1.232    -0.440    -0.411  0.2733  0.7039 -0.6557
    28 H(1)   Bbb    -0.0019    -1.018    -0.363    -0.340  0.8306 -0.5165 -0.2083
              Bcc     0.0042     2.251     0.803     0.751  0.4852  0.4877  0.7258
 
              Baa    -0.0042    -0.563    -0.201    -0.188 -0.6353  0.3907  0.6661
    29 C(13)  Bbb    -0.0038    -0.511    -0.182    -0.171  0.2411  0.9198 -0.3096
              Bcc     0.0080     1.075     0.383     0.358  0.7337  0.0360  0.6785
 
              Baa    -0.0022    -1.173    -0.418    -0.391  0.7703 -0.2774 -0.5742
    30 H(1)   Bbb    -0.0020    -1.062    -0.379    -0.354  0.1686  0.9570 -0.2362
              Bcc     0.0042     2.235     0.797     0.745  0.6150  0.0851  0.7839
 
              Baa    -0.0066    -3.511    -1.253    -1.171  0.7287 -0.3257 -0.6024
    31 H(1)   Bbb    -0.0047    -2.505    -0.894    -0.836  0.3264  0.9385 -0.1126
              Bcc     0.0113     6.016     2.147     2.007  0.6021 -0.1146  0.7902
 
              Baa    -0.0028    -1.492    -0.532    -0.498 -0.5037  0.2331  0.8318
    32 H(1)   Bbb    -0.0023    -1.248    -0.445    -0.416  0.2151  0.9664 -0.1405
              Bcc     0.0051     2.740     0.978     0.914  0.8366 -0.1082  0.5369
 
              Baa    -0.0036    -0.487    -0.174    -0.163 -0.3020  0.1399  0.9430
    33 C(13)  Bbb    -0.0035    -0.466    -0.166    -0.155 -0.3689  0.8950 -0.2509
              Bcc     0.0071     0.953     0.340     0.318  0.8790  0.4236  0.2187
 
              Baa    -0.0016    -0.834    -0.298    -0.278 -0.3234  0.9139 -0.2454
    34 H(1)   Bbb    -0.0013    -0.676    -0.241    -0.225 -0.5402  0.0347  0.8408
              Bcc     0.0028     1.510     0.539     0.504  0.7769  0.4045  0.4825
 
              Baa    -0.0020    -1.084    -0.387    -0.362 -0.0086 -0.7032  0.7109
    35 H(1)   Bbb    -0.0017    -0.882    -0.315    -0.294 -0.3046  0.6790  0.6680
              Bcc     0.0037     1.965     0.701     0.656  0.9525  0.2108  0.2200
 
              Baa    -0.0021    -1.101    -0.393    -0.367 -0.4932  0.4924  0.7172
    36 H(1)   Bbb    -0.0018    -0.963    -0.344    -0.321  0.3407 -0.6492  0.6800
              Bcc     0.0039     2.064     0.736     0.688  0.8004  0.5797  0.1524
 
              Baa    -0.0047    -0.634    -0.226    -0.211  0.1113  0.7297  0.6747
    37 C(13)  Bbb    -0.0044    -0.591    -0.211    -0.197 -0.5364  0.6156 -0.5773
              Bcc     0.0091     1.225     0.437     0.409  0.8366  0.2977 -0.4599
 
              Baa    -0.0023    -1.211    -0.432    -0.404  0.3152 -0.6227  0.7162
    38 H(1)   Bbb    -0.0017    -0.921    -0.329    -0.307 -0.1141  0.7243  0.6800
              Bcc     0.0040     2.132     0.761     0.711  0.9421  0.2960 -0.1572
 
              Baa    -0.0019    -1.010    -0.360    -0.337  0.4393 -0.1627  0.8835
    39 H(1)   Bbb    -0.0012    -0.652    -0.233    -0.218  0.0815  0.9866  0.1411
              Bcc     0.0031     1.662     0.593     0.554  0.8946 -0.0100 -0.4467
 
              Baa    -0.0025    -1.317    -0.470    -0.439  0.2868  0.5901  0.7547
    40 H(1)   Bbb    -0.0018    -0.969    -0.346    -0.323 -0.5809  0.7335 -0.3528
              Bcc     0.0043     2.286     0.816     0.763  0.7618  0.3372 -0.5532
 
              Baa    -0.0039    -0.518    -0.185    -0.173  0.1209  0.1830  0.9756
    41 C(13)  Bbb    -0.0026    -0.345    -0.123    -0.115  0.2770  0.9376 -0.2102
              Bcc     0.0064     0.862     0.308     0.288  0.9532 -0.2957 -0.0626
 
              Baa    -0.0023    -1.213    -0.433    -0.405  0.2308  0.0785  0.9698
    42 H(1)   Bbb    -0.0018    -0.940    -0.335    -0.313  0.3470  0.9246 -0.1574
              Bcc     0.0040     2.153     0.768     0.718  0.9090 -0.3728 -0.1861
 
              Baa    -0.0024    -1.295    -0.462    -0.432 -0.0514  0.3580  0.9323
    43 H(1)   Bbb    -0.0021    -1.143    -0.408    -0.381  0.2265  0.9134 -0.3383
              Bcc     0.0046     2.438     0.870     0.813  0.9726 -0.1938  0.1281
 
              Baa    -0.0053    -2.818    -1.006    -0.940 -0.0567  0.0626  0.9964
    44 H(1)   Bbb    -0.0039    -2.074    -0.740    -0.692  0.4561  0.8894 -0.0299
              Bcc     0.0092     4.892     1.746     1.632  0.8881 -0.4527  0.0790
 
              Baa    -0.0053    -0.715    -0.255    -0.239  0.0766  0.9786 -0.1912
    45 C(13)  Bbb    -0.0044    -0.594    -0.212    -0.198  0.6994  0.0839  0.7098
              Bcc     0.0098     1.310     0.467     0.437  0.7106 -0.1881 -0.6780
 
              Baa    -0.0086    -4.573    -1.632    -1.525  0.4981 -0.4103  0.7639
    46 H(1)   Bbb    -0.0066    -3.522    -1.257    -1.175  0.5673  0.8204  0.0708
              Bcc     0.0152     8.095     2.889     2.700  0.6558 -0.3982 -0.6414
 
              Baa    -0.0049    -2.610    -0.931    -0.871 -0.3945  0.8798 -0.2654
    47 H(1)   Bbb    -0.0044    -2.367    -0.844    -0.789  0.7057  0.4750  0.5257
              Bcc     0.0093     4.976     1.776     1.660 -0.5886 -0.0201  0.8082
 
              Baa    -0.0027    -1.449    -0.517    -0.483  0.4061 -0.6109  0.6796
    48 H(1)   Bbb    -0.0022    -1.177    -0.420    -0.393  0.5658  0.7521  0.3380
              Bcc     0.0049     2.626     0.937     0.876  0.7176 -0.2473 -0.6511
 
              Baa    -0.0043    -0.578    -0.206    -0.193  0.4893  0.7043 -0.5144
    49 C(13)  Bbb    -0.0038    -0.516    -0.184    -0.172 -0.4631  0.7096  0.5311
              Bcc     0.0082     1.094     0.390     0.365  0.7390 -0.0216  0.6733
 
              Baa    -0.0023    -1.244    -0.444    -0.415  0.5398  0.7330 -0.4139
    50 H(1)   Bbb    -0.0021    -1.110    -0.396    -0.370 -0.4949  0.6741  0.5483
              Bcc     0.0044     2.354     0.840     0.785  0.6809 -0.0911  0.7267
 
              Baa    -0.0066    -3.533    -1.261    -1.178  0.5576  0.6627 -0.5000
    51 H(1)   Bbb    -0.0060    -3.186    -1.137    -1.063 -0.5537  0.7456  0.3708
              Bcc     0.0126     6.719     2.397     2.241  0.6185  0.0701  0.7827
 
              Baa    -0.0034    -1.790    -0.639    -0.597 -0.4156 -0.4045  0.8146
    52 H(1)   Bbb    -0.0028    -1.489    -0.531    -0.497 -0.3188  0.9036  0.2860
              Bcc     0.0061     3.279     1.170     1.094  0.8518  0.1408  0.5046
 
              Baa    -0.0041    -0.557    -0.199    -0.186 -0.2825 -0.2211  0.9334
    53 C(13)  Bbb    -0.0040    -0.539    -0.192    -0.180  0.3310  0.8909  0.3111
              Bcc     0.0082     1.096     0.391     0.366  0.9004 -0.3968  0.1785
 
              Baa    -0.0017    -0.900    -0.321    -0.300  0.3334  0.9166  0.2206
    54 H(1)   Bbb    -0.0013    -0.687    -0.245    -0.229 -0.5053 -0.0238  0.8626
              Bcc     0.0030     1.587     0.566     0.529  0.7960 -0.3990  0.4552
 
              Baa    -0.0021    -1.120    -0.399    -0.373 -0.0219  0.6699  0.7421
    55 H(1)   Bbb    -0.0017    -0.907    -0.323    -0.302  0.2570  0.7211 -0.6433
              Bcc     0.0038     2.026     0.723     0.676  0.9662 -0.1766  0.1880
 
              Baa    -0.0021    -1.144    -0.408    -0.382  0.5071  0.6132 -0.6057
    56 H(1)   Bbb    -0.0018    -0.965    -0.344    -0.322  0.2760  0.5503  0.7881
              Bcc     0.0040     2.109     0.753     0.704  0.8165 -0.5668  0.1098
 
              Baa    -0.0043    -0.575    -0.205    -0.192 -0.2179  0.5844  0.7816
    57 C(13)  Bbb    -0.0038    -0.507    -0.181    -0.169  0.8042  0.5613 -0.1954
              Bcc     0.0081     1.082     0.386     0.361  0.5529 -0.5860  0.5923
 
              Baa    -0.0035    -1.888    -0.674    -0.630 -0.2140  0.3481  0.9127
    58 H(1)   Bbb    -0.0028    -1.479    -0.528    -0.493  0.8238  0.5665 -0.0229
              Bcc     0.0063     3.366     1.201     1.123 -0.5250  0.7470 -0.4079
 
              Baa    -0.0067    -3.590    -1.281    -1.198 -0.6428  0.4006  0.6530
    59 H(1)   Bbb    -0.0061    -3.233    -1.153    -1.078  0.6733  0.7020  0.2321
              Bcc     0.0128     6.823     2.435     2.276  0.3654 -0.5888  0.7209
 
              Baa    -0.0023    -1.246    -0.445    -0.416 -0.0285  0.7792  0.6261
    60 H(1)   Bbb    -0.0021    -1.113    -0.397    -0.371  0.8551  0.3435 -0.3884
              Bcc     0.0044     2.360     0.842     0.787  0.5177 -0.5243  0.6761
 
              Baa    -0.0050    -0.665    -0.237    -0.222  0.7059  0.2122  0.6758
    61 C(13)  Bbb    -0.0046    -0.611    -0.218    -0.204 -0.2786  0.9604 -0.0105
              Bcc     0.0095     1.277     0.455     0.426 -0.6512 -0.1808  0.7370
 
              Baa    -0.0083    -4.447    -1.587    -1.483  0.5895  0.4067  0.6979
    62 H(1)   Bbb    -0.0059    -3.155    -1.126    -1.052 -0.5515  0.8339 -0.0201
              Bcc     0.0142     7.602     2.713     2.536 -0.5902 -0.3730  0.7159
 
              Baa    -0.0046    -2.475    -0.883    -0.826  0.8604  0.0853  0.5025
    63 H(1)   Bbb    -0.0039    -2.089    -0.746    -0.697 -0.0640  0.9962 -0.0596
              Bcc     0.0086     4.564     1.629     1.522 -0.5056  0.0192  0.8625
 
              Baa    -0.0026    -1.366    -0.488    -0.456  0.5291  0.5138  0.6753
    64 H(1)   Bbb    -0.0020    -1.082    -0.386    -0.361 -0.5172  0.8262 -0.2234
              Bcc     0.0046     2.448     0.873     0.817 -0.6727 -0.2311  0.7029
 
              Baa    -0.0044    -0.589    -0.210    -0.196  0.2413 -0.5858  0.7737
    65 C(13)  Bbb    -0.0042    -0.560    -0.200    -0.187  0.4944  0.7602  0.4214
              Bcc     0.0086     1.149     0.410     0.383  0.8350 -0.2808 -0.4731
 
              Baa    -0.0022    -1.172    -0.418    -0.391  0.3282  0.6328  0.7013
    66 H(1)   Bbb    -0.0017    -0.913    -0.326    -0.305  0.0759  0.7224 -0.6873
              Bcc     0.0039     2.086     0.744     0.696  0.9415 -0.2788 -0.1891
 
              Baa    -0.0018    -0.970    -0.346    -0.324  0.4734  0.1388  0.8699
    67 H(1)   Bbb    -0.0012    -0.626    -0.223    -0.209 -0.0773  0.9902 -0.1159
              Bcc     0.0030     1.596     0.570     0.533  0.8775  0.0123 -0.4795
 
              Baa    -0.0024    -1.282    -0.458    -0.428  0.3716 -0.5162  0.7716
    68 H(1)   Bbb    -0.0017    -0.930    -0.332    -0.310  0.5545  0.7901  0.2615
              Bcc     0.0041     2.212     0.789     0.738  0.7446 -0.3307 -0.5798
 
              Baa    -0.0039    -0.525    -0.187    -0.175  0.1625 -0.1103  0.9805
    69 C(13)  Bbb    -0.0026    -0.349    -0.125    -0.116 -0.2678  0.9515  0.1514
              Bcc     0.0065     0.875     0.312     0.292  0.9497  0.2872 -0.1251
 
              Baa    -0.0023    -1.206    -0.430    -0.402  0.2949 -0.0912  0.9512
    70 H(1)   Bbb    -0.0017    -0.919    -0.328    -0.307 -0.3274  0.9255  0.1903
              Bcc     0.0040     2.125     0.758     0.709  0.8977  0.3676 -0.2431
 
              Baa    -0.0025    -1.339    -0.478    -0.447  0.0058 -0.3869  0.9221
    71 H(1)   Bbb    -0.0022    -1.155    -0.412    -0.385 -0.2145  0.9002  0.3790
              Bcc     0.0047     2.494     0.890     0.832  0.9767  0.2000  0.0777
 
              Baa    -0.0055    -2.913    -1.040    -0.972  0.0500 -0.1021  0.9935
    72 H(1)   Bbb    -0.0040    -2.136    -0.762    -0.713 -0.4578  0.8818  0.1136
              Bcc     0.0095     5.049     1.802     1.684  0.8876  0.4605  0.0027
 
              Baa    -0.4104    29.699    10.597     9.907  0.0632 -0.0979  0.9932
    73 O(17)  Bbb     0.1910   -13.822    -4.932    -4.611  0.9279 -0.3607 -0.0946
              Bcc     0.2194   -15.877    -5.665    -5.296  0.3675  0.9276  0.0680
 
              Baa    -0.0549    -7.373    -2.631    -2.459  0.1706  0.9848  0.0335
    74 C(13)  Bbb    -0.0381    -5.113    -1.825    -1.706  0.9844 -0.1688 -0.0493
              Bcc     0.0930    12.486     4.455     4.165  0.0429 -0.0414  0.9982
 
              Baa    -0.0319   -17.004    -6.067    -5.672  0.9974  0.0229 -0.0679
    75 H(1)   Bbb    -0.0099    -5.262    -1.878    -1.755 -0.0504  0.8975 -0.4382
              Bcc     0.0417    22.266     7.945     7.427  0.0509  0.4405  0.8963
 
              Baa    -0.0671     4.856     1.733     1.620  0.0376  0.9978  0.0544
    76 O(17)  Bbb    -0.0340     2.461     0.878     0.821  0.9977 -0.0343 -0.0593
              Bcc     0.1011    -7.317    -2.611    -2.441  0.0573 -0.0565  0.9968
 

 ---------------------------------------------------------------------------------

 Unable to Open any file for archive entry.
 1\1\GINC-NODE102\SP\UB3LYP\def2SVP\C24H45N1O3P2Ru1(3)\DO57CIG\16-Jan-2
 025\0\\# ub3lyp scrf=(smd,solvent=water) def2svp empiricaldispersion=g
 d3bj int=ultrafine scf=xqc guess=read\\A_Ru_Cis_DFT_B3LYP_def2svp_smd_
 water_T_Opt_3MLCT_from_3MLCT_trans\\0,3\P,0,2.412868,-0.094449,-0.1442
 65\N,0,-0.014745,1.67011,-0.067832\C,0,2.18893,1.497128,-1.074514\H,0,
 3.113566,2.087781,-1.109246\H,0,1.953738,1.189827,-2.107226\O,0,-0.142
 639,-1.080228,-2.140182\P,0,-2.428322,-0.088089,0.052854\C,0,1.054182,
 2.32638,-0.534279\C,0,1.114542,3.72489,-0.504876\H,0,1.992958,4.241783
 ,-0.894696\C,0,0.04121,4.42916,0.042209\H,0,0.062461,5.520526,0.084666
 \C,0,-1.057448,3.726797,0.538424\H,0,-1.91242,4.245906,0.974803\C,0,-1
 .05312,2.328339,0.459942\C,0,-2.212963,1.510172,0.968938\H,0,-3.132233
 ,2.11112,0.970919\H,0,-2.011577,1.219289,2.014087\Ru,0,-0.01216227,-1.
 01070848,-0.05203733\H,0,0.692632,-1.43269,-2.464648\C,0,-3.251867,0.4
 14832,-1.597843\C,0,-3.689242,-1.026507,1.141738\C,0,3.672968,-1.03308
 4,-1.235163\C,0,3.23895,0.41126,1.50261\C,0,2.316777,1.435151,2.194192
 \H,0,2.315062,2.400477,1.671025\H,0,1.27969,1.092861,2.284222\H,0,2.70
 2246,1.612888,3.211336\C,0,3.382488,-0.831614,2.403768\H,0,3.521161,-0
 .503169,3.446828\H,0,2.501202,-1.483887,2.374833\H,0,4.256058,-1.43457
 8,2.131644\C,0,4.614888,1.069055,1.328299\H,0,4.960743,1.42544,2.3136\
 H,0,5.368667,0.364833,0.953429\H,0,4.578807,1.940314,0.657466\C,0,4.74
 511,-0.114754,-1.842777\H,0,5.322707,0.432533,-1.089586\H,0,5.451726,-
 0.73695,-2.41789\H,0,4.308508,0.612477,-2.542041\C,0,4.330706,-2.15353
 1,-0.417947\H,0,4.873638,-2.822089,-1.106183\H,0,5.057683,-1.766837,0.
 307096\H,0,3.584063,-2.758676,0.11881\C,0,2.906494,-1.687136,-2.394227
 \H,0,2.185308,-2.432688,-2.030052\H,0,2.39151,-0.942841,-3.019376\H,0,
 3.627573,-2.211705,-3.042014\C,0,-3.305865,-0.812024,-2.526736\H,0,-3.
 622781,-0.480335,-3.530174\H,0,-2.318534,-1.282973,-2.614999\H,0,-4.02
 9577,-1.561929,-2.187181\C,0,-4.659288,1.003095,-1.433168\H,0,-5.00036
 6,1.37308,-2.415293\H,0,-5.388741,0.25561,-1.095253\H,0,-4.677611,1.85
 4828,-0.736724\C,0,-2.365234,1.487083,-2.258986\H,0,-2.389092,2.438805
 ,-1.710576\H,0,-1.322309,1.164388,-2.356179\H,0,-2.758542,1.681744,-3.
 270545\C,0,-2.923237,-1.658418,2.312524\H,0,-2.185951,-2.395359,1.9665
 45\H,0,-2.408753,-0.907964,2.926963\H,0,-3.645996,-2.180454,2.961255\C
 ,0,-4.776892,-0.114107,1.731119\H,0,-5.362472,0.410039,0.968029\H,0,-5
 .474454,-0.736122,2.317381\H,0,-4.352501,0.632985,2.417059\C,0,-4.3270
 81,-2.163039,0.330299\H,0,-4.882085,-2.821634,1.018632\H,0,-5.039442,-
 1.794447,-0.418833\H,0,-3.566315,-2.775045,-0.178514\O,0,0.02136465,-3
 .29873537,-0.28400475\C,0,0.05929373,-1.04636848,1.76684967\H,0,-0.041
 99835,-3.30082337,-1.25481275\O,0,0.12707673,-1.08763748,2.93618267\\V
 ersion=ES64L-G16RevC.02\State=3-A\HF=-1998.9437539\S2=2.021892\S2-1=0.
 \S2A=2.000266\RMSD=1.720e-09\Dipole=0.8588598,5.6399272,0.0696508\Quad
 rupole=28.6926397,-13.5360186,-15.1566211,-1.5241323,-8.8853285,3.2501
 515\PG=C01 [X(C24H45N1O3P2Ru1)]\\@
 The archive entry for this job was punched.


      TO SUSPECT YOUR OWN MORTALITY IS TO KNOW THE BEGINNING OF TERROR.
      TO LEARN IRREFUTABLY THAT YOU ARE MORTAL IS TO KNOW THE END
      OF TERROR.

                                                  -- JESSICA
                                                     CHILDREN OF DUNE
                                                     BY FRANK HERBERT
 Job cpu time:       0 days  2 hours 20 minutes 33.3 seconds.
 Elapsed time:       0 days  0 hours  6 minutes 24.7 seconds.
 File lengths (MBytes):  RWF=    823 Int=      0 D2E=      0 Chk=     67 Scr=      1
 Normal termination of Gaussian 16 at Thu Jan 16 18:20:44 2025.
