 Entering Gaussian System, Link 0=g16
 Input=A_Ru_Cis_straight_CO_DFT_B3LYP_def2SVP_smd_water_T_3MC_freezedScan_2_2.gjf
 Output=A_Ru_Cis_straight_CO_DFT_B3LYP_def2SVP_smd_water_T_3MC_freezedScan_2_2.log
 Initial command:
 /cluster/apps/gaussian/g16_c02/g16/l1.exe "/beegfs/do57cig/gauss2178639/Gau-2113335.inp" -scrdir="/beegfs/do57cig/gauss2178639/"
 Default CPUs for threads: 0-23
 Default is to use a total of  24 processors:
                               24 via shared-memory
                                1 via Linda
 Entering Link 1 = /cluster/apps/gaussian/g16_c02/g16/l1.exe PID=   2113337.
  
 Copyright (c) 1988-2021, Gaussian, Inc.  All Rights Reserved.
  
 This is part of the Gaussian(R) 16 program.  It is based on
 the Gaussian(R) 09 system (copyright 2009, Gaussian, Inc.),
 the Gaussian(R) 03 system (copyright 2003, Gaussian, Inc.),
 the Gaussian(R) 98 system (copyright 1998, Gaussian, Inc.),
 the Gaussian(R) 94 system (copyright 1995, Gaussian, Inc.),
 the Gaussian 92(TM) system (copyright 1992, Gaussian, Inc.),
 the Gaussian 90(TM) system (copyright 1990, Gaussian, Inc.),
 the Gaussian 88(TM) system (copyright 1988, Gaussian, Inc.),
 the Gaussian 86(TM) system (copyright 1986, Carnegie Mellon
 University), and the Gaussian 82(TM) system (copyright 1983,
 Carnegie Mellon University). Gaussian is a federally registered
 trademark of Gaussian, Inc.
  
 This software contains proprietary and confidential information,
 including trade secrets, belonging to Gaussian, Inc.
  
 This software is provided under written license and may be
 used, copied, transmitted, or stored only in accord with that
 written license.
  
 The following legend is applicable only to US Government
 contracts under FAR:
  
                    RESTRICTED RIGHTS LEGEND
  
 Use, reproduction and disclosure by the US Government is
 subject to restrictions as set forth in subparagraphs (a)
 and (c) of the Commercial Computer Software - Restricted
 Rights clause in FAR 52.227-19.
  
 Gaussian, Inc.
 340 Quinnipiac St., Bldg. 40, Wallingford CT 06492
  
  
 ---------------------------------------------------------------
 Warning -- This program may not be used in any manner that
 competes with the business of Gaussian, Inc. or will provide
 assistance to any competitor of Gaussian, Inc.  The licensee
 of this program is prohibited from giving any competitor of
 Gaussian, Inc. access to this program.  By using this program,
 the user acknowledges that Gaussian, Inc. is engaged in the
 business of creating and licensing software in the field of
 computational chemistry and represents and warrants to the
 licensee that it is not a competitor of Gaussian, Inc. and that
 it will not use this program in any manner prohibited above.
 ---------------------------------------------------------------
  

 Cite this work as:
 Gaussian 16, Revision C.02,
 M. J. Frisch, G. W. Trucks, H. B. Schlegel, G. E. Scuseria, 
 M. A. Robb, J. R. Cheeseman, G. Scalmani, V. Barone, 
 G. A. Petersson, H. Nakatsuji, X. Li, M. Caricato, A. V. Marenich, 
 J. Bloino, B. G. Janesko, R. Gomperts, B. Mennucci, H. P. Hratchian, 
 J. V. Ortiz, A. F. Izmaylov, J. L. Sonnenberg, D. Williams-Young, 
 F. Ding, F. Lipparini, F. Egidi, J. Goings, B. Peng, A. Petrone, 
 T. Henderson, D. Ranasinghe, V. G. Zakrzewski, J. Gao, N. Rega, 
 G. Zheng, W. Liang, M. Hada, M. Ehara, K. Toyota, R. Fukuda, 
 J. Hasegawa, M. Ishida, T. Nakajima, Y. Honda, O. Kitao, H. Nakai, 
 T. Vreven, K. Throssell, J. A. Montgomery, Jr., J. E. Peralta, 
 F. Ogliaro, M. J. Bearpark, J. J. Heyd, E. N. Brothers, K. N. Kudin, 
 V. N. Staroverov, T. A. Keith, R. Kobayashi, J. Normand, 
 K. Raghavachari, A. P. Rendell, J. C. Burant, S. S. Iyengar, 
 J. Tomasi, M. Cossi, J. M. Millam, M. Klene, C. Adamo, R. Cammi, 
 J. W. Ochterski, R. L. Martin, K. Morokuma, O. Farkas, 
 J. B. Foresman, and D. J. Fox, Gaussian, Inc., Wallingford CT, 2019.
 
 ******************************************
 Gaussian 16:  ES64L-G16RevC.02  7-Dec-2021
                16-Jan-2025 
 ******************************************
 %chk=A_Ru_Cis_straight_CO_DFT_B3LYP_def2SVP_smd_water_T_3MC_freezedScan_2_2.chk
 %Oldchk=A_Ru_Cis_straight_CO_DFT_B3LYP_def2SVP_smd_water_T_3MC_tweaked_geom.chk
 SetSPE:  set environment variable "OMP_PROC_BIND" = "true"
 SetSPE:  set environment variable "OMP_PLACES" = "{0},{1},{2},{3},{4},{5},{6},{7},{8},{9},{10},{11},{12},{13},{14},{15},{16},{17},{18},{19},{20},{21},{22},{23}"
 Copying data from "A_Ru_Cis_straight_CO_DFT_B3LYP_def2SVP_smd_water_T_3MC_tweaked_geom.chk" to current chk file "A_Ru_Cis_straight_CO_DFT_B3LYP_def2SVP_smd_water_T_3MC_freezedScan_2_2.chk"
 IOpt=  2 FromEx=T IUOpen= 4 IOptOp= 5 NList=   0 IFRang= 0 IUIn= 4 IUOut= 2.
 ----------------------------------------------------------------------
 # ub3lyp scrf=(smd,solvent=water) def2svp empiricaldispersion=gd3bj in
 t=ultrafine scf=xqc guess=read
 ----------------------------------------------------------------------
 1/38=1,172=1/1;
 2/12=2,17=6,18=5,40=1/2;
 3/5=43,7=101,11=2,25=1,30=1,70=32201,72=1,74=-5,75=-5,116=2,124=41/1,2,3;
 4/5=1/1;
 5/5=2,8=3,13=1,38=6,53=1/2,8;
 6/7=2,8=2,9=2,10=2,28=1/1;
 99/5=1,9=1/99;
 ----------------------------------------------------------------------
 A_Ru_Cis_straight_CO_DFT_B3LYP_def2SVP_smd_water_T_3MC_freezedScan_2_2
 ----------------------------------------------------------------------
 Symbolic Z-matrix:
 Charge =  0 Multiplicity = 3
 P                     2.41287  -0.09445  -0.14427 
 N                    -0.01475   1.67011  -0.06783 
 C                     2.18893   1.49713  -1.07451 
 H                     3.11357   2.08778  -1.10925 
 H                     1.95374   1.18983  -2.10723 
 O                    -0.14264  -1.08023  -2.14018 
 P                    -2.42832  -0.08809   0.05285 
 C                     1.05418   2.32638  -0.53428 
 C                     1.11454   3.72489  -0.50488 
 H                     1.99296   4.24178  -0.8947 
 C                     0.04121   4.42916   0.04221 
 H                     0.06246   5.52053   0.08467 
 C                    -1.05745   3.7268    0.53842 
 H                    -1.91242   4.24591   0.9748 
 C                    -1.05312   2.32834   0.45994 
 C                    -2.21296   1.51017   0.96894 
 H                    -3.13223   2.11112   0.97092 
 H                    -2.01158   1.21929   2.01409 
 Ru                   -0.01216  -1.01071  -0.05204 
 H                     0.69263  -1.43269  -2.46465 
 C                    -3.25187   0.41483  -1.59784 
 C                    -3.68924  -1.02651   1.14174 
 C                     3.67297  -1.03308  -1.23516 
 C                     3.23895   0.41126   1.50261 
 C                     2.31678   1.43515   2.19419 
 H                     2.31506   2.40048   1.67103 
 H                     1.27969   1.09286   2.28422 
 H                     2.70225   1.61289   3.21134 
 C                     3.38249  -0.83161   2.40377 
 H                     3.52116  -0.50317   3.44683 
 H                     2.5012   -1.48389   2.37483 
 H                     4.25606  -1.43458   2.13164 
 C                     4.61489   1.06906   1.3283 
 H                     4.96074   1.42544   2.3136 
 H                     5.36867   0.36483   0.95343 
 H                     4.57881   1.94031   0.65747 
 C                     4.74511  -0.11475  -1.84278 
 H                     5.32271   0.43253  -1.08959 
 H                     5.45173  -0.73695  -2.41789 
 H                     4.30851   0.61248  -2.54204 
 C                     4.33071  -2.15353  -0.41795 
 H                     4.87364  -2.82209  -1.10618 
 H                     5.05768  -1.76684   0.3071 
 H                     3.58406  -2.75868   0.11881 
 C                     2.90649  -1.68714  -2.39423 
 H                     2.18531  -2.43269  -2.03005 
 H                     2.39151  -0.94284  -3.01938 
 H                     3.62757  -2.21171  -3.04201 
 C                    -3.30587  -0.81202  -2.52674 
 H                    -3.62278  -0.48034  -3.53017 
 H                    -2.31853  -1.28297  -2.615 
 H                    -4.02958  -1.56193  -2.18718 
 C                    -4.65929   1.0031   -1.43317 
 H                    -5.00037   1.37308  -2.41529 
 H                    -5.38874   0.25561  -1.09525 
 H                    -4.67761   1.85483  -0.73672 
 C                    -2.36523   1.48708  -2.25899 
 H                    -2.38909   2.43881  -1.71058 
 H                    -1.32231   1.16439  -2.35618 
 H                    -2.75854   1.68174  -3.27055 
 C                    -2.92324  -1.65842   2.31252 
 H                    -2.18595  -2.39536   1.96655 
 H                    -2.40875  -0.90796   2.92696 
 H                    -3.646    -2.18045   2.96126 
 C                    -4.77689  -0.11411   1.73112 
 H                    -5.36247   0.41004   0.96803 
 H                    -5.47445  -0.73612   2.31738 
 H                    -4.3525    0.63299   2.41706 
 C                    -4.32708  -2.16304   0.3303 
 H                    -4.88209  -2.82163   1.01863 
 H                    -5.03944  -1.79445  -0.41883 
 H                    -3.56632  -2.77505  -0.17851 
 O                     0.01991  -3.19926  -0.27392 
 C                     0.05929  -1.04637   1.76685 
 H                    -0.04346  -3.20134  -1.24473 
 O                     0.12708  -1.08764   2.93618 
 
 Stoichiometry    C24H45NO3P2Ru(3)
 Framework group  C1[X(C24H45NO3P2Ru)]
 Deg. of freedom   222
 Full point group                 C1      NOp   1
 Largest Abelian subgroup         C1      NOp   1
 Largest concise Abelian subgroup C1      NOp   1
                         Standard orientation:                         
 ---------------------------------------------------------------------
 Center     Atomic      Atomic             Coordinates (Angstroms)
 Number     Number       Type             X           Y           Z
 ---------------------------------------------------------------------
      1         15           0        2.412848   -0.093279   -0.143754
      2          7           0       -0.014821    1.671465   -0.073657
      3          6           0        2.188866    1.494948   -1.079699
      4          1           0        3.113484    2.085502   -1.116541
      5          1           0        1.953690    1.183942   -2.111305
      6          8           0       -0.142615   -1.086282   -2.136142
      7         15           0       -2.428343   -0.086366    0.053312
      8          6           0        1.054089    2.326094   -0.542445
      9          6           0        1.114404    3.724702   -0.518052
     10          1           0        1.992806    4.240223   -0.909715
     11          6           0        0.041047    4.430894    0.026501
     12          1           0        0.062263    5.522405    0.065048
     13          6           0       -1.057592    3.730278    0.525222
     14          1           0       -1.912583    4.250920    0.959733
     15          6           0       -1.053220    2.331548    0.451750
     16          6           0       -2.213040    1.515173    0.963666
     17          1           0       -3.132329    2.116095    0.963489
     18          1           0       -2.011651    1.228042    2.009851
     19         44           0       -0.012154   -1.009279   -0.048259
     20          1           0        0.692669   -1.439878   -2.459339
     21          6           0       -3.251894    0.410613   -1.599181
     22          6           0       -3.689240   -1.020917    1.145542
     23          6           0        3.672985   -1.035776   -1.231275
     24          6           0        3.238904    0.418352    1.501304
     25          6           0        2.316695    1.444684    2.189209
     26          1           0        2.314952    2.408130    1.662587
     27          1           0        1.279618    1.102686    2.280458
     28          1           0        2.702152    1.626076    3.205712
     29          6           0        3.382476   -0.821282    2.406909
     30          1           0        3.521132   -0.489098    3.448787
     31          1           0        2.501210   -1.473682    2.380306
     32          1           0        4.256066   -1.425189    2.136952
     33          6           0        4.614823    1.075561    1.324647
     34          1           0        4.960660    1.435484    2.308667
     35          1           0        5.368626    0.370025    0.952306
     36          1           0        4.578718    1.944411    0.650697
     37          6           0        4.745102   -0.119595   -1.842168
     38          1           0        5.322677    0.430405   -1.090939
     39          1           0        5.451741   -0.743825   -2.415044
     40          1           0        4.308481    0.605113   -2.544035
     41          6           0        4.330753   -2.153268   -0.410046
     42          1           0        4.873710   -2.824270   -1.095880
     43          1           0        5.057713   -1.763957    0.313611
     44          1           0        3.584126   -2.756510    0.128870
     45          6           0        2.906539   -1.694000   -2.387993
     46          1           0        2.185374   -2.438266   -2.021154
     47          1           0        2.391535   -0.951966   -3.015807
     48          1           0        3.627638   -2.220864   -3.033892
     49          6           0       -3.305847   -0.819564   -2.523674
     50          1           0       -3.622767   -0.491482   -3.528296
     51          1           0       -2.318501   -1.290795   -2.610243
     52          1           0       -4.029538   -1.568271   -2.181439
     53          6           0       -4.659334    0.999418   -1.436623
     54          1           0       -5.000418    1.365871   -2.420069
     55          1           0       -5.388766    0.253125   -1.096037
     56          1           0       -4.677688    1.853639   -0.743235
     57          6           0       -2.365290    1.480517   -2.264156
     58          1           0       -2.389182    2.434196   -1.719158
     59          1           0       -1.322355    1.157508   -2.360186
     60          1           0       -2.758598    1.671541   -3.276408
     61          6           0       -2.923223   -1.648606    2.318589
     62          1           0       -2.185911   -2.386759    1.975257
     63          1           0       -2.408766   -0.895940    2.930339
     64          1           0       -3.645969   -2.168338    2.969182
     65          6           0       -4.776923   -0.106446    1.731645
     66          1           0       -5.362514    0.414945    0.966678
     67          1           0       -5.474469   -0.726379    2.320127
     68          1           0       -4.352560    0.643112    2.414907
     69          6           0       -4.327038   -2.160369    0.338176
     70          1           0       -4.882026   -2.816511    1.028860
     71          1           0       -5.039406   -1.794485   -0.412276
     72          1           0       -3.566250   -2.774169   -0.168437
     73          8           0        0.019986   -3.198606   -0.262300
     74          6           0        0.059292   -1.038421    1.770744
     75          1           0       -0.043371   -3.204174   -1.233095
     76          8           0        0.127069   -1.075499    2.940218
 ---------------------------------------------------------------------
 Rotational constants (GHZ):           0.1869974           0.1023169           0.0927084
 Standard basis: def2SVP (5D, 7F)
 There are   719 symmetry adapted cartesian basis functions of A   symmetry.
 There are   684 symmetry adapted basis functions of A   symmetry.
   684 basis functions,  1154 primitive gaussians,   719 cartesian basis functions
   134 alpha electrons      132 beta electrons
       nuclear repulsion energy      4457.3936001577 Hartrees.
 NAtoms=   76 NActive=   76 NUniq=   76 SFac= 1.00D+00 NAtFMM=   60 NAOKFM=T Big=T
 Integral buffers will be    131072 words long.
 Raffenetti 2 integral format.
 Two-electron integral symmetry is turned on.
 Nuclear repulsion after empirical dispersion term =     4457.1703044993 Hartrees.
 ------------------------------------------------------------------------------
 Polarizable Continuum Model (PCM)
 =================================
 Model                : PCM.
 Atomic radii         : SMD-Coulomb.
 Polarization charges : Total charges.
 Charge compensation  : None.
 Solution method      : On-the-fly selection.
 Cavity type          : VdW (van der Waals Surface) (Alpha=1.000).
 Cavity algorithm     : GePol (No added spheres)
                        Default sphere list used, NSphG=   76.
                        Lebedev-Laikov grids with approx.  5.0 points / Ang**2.
                        Smoothing algorithm: York/Karplus (Gamma=1.0000).
                        Polarization charges: spherical gaussians, with
                                              point-specific exponents (IZeta= 3).
                        Self-potential: point-specific (ISelfS= 7).
                        Self-field    : sphere-specific E.n sum rule (ISelfD= 2).
 Solvent              : Water, Eps=  78.355300 Eps(inf)=   1.777849
 ------------------------------------------------------------------------------
 ------------------------------------------------------------------------------
 Atomic radii for non-electrostatic terms: SMD-CDS.
 ------------------------------------------------------------------------------
 Nuclear repulsion after PCM non-electrostatic terms =     4457.1891497499 Hartrees.
 One-electron integrals computed using PRISM.
   1 Symmetry operations used in ECPInt.
 ECPInt:  NShTT=   54615 NPrTT=  190596 LenC2=   47877 LenP2D=  112949.
 LDataN:  DoStor=T MaxTD1= 7 Len=  274
 NBasis=   684 RedAO= T EigKep=  4.90D-04  NBF=   684
 NBsUse=   684 1.00D-06 EigRej= -1.00D+00 NBFU=   684
 Defaulting to unpruned grid for atomic number  44.
 Initial guess from the checkpoint file:  "A_Ru_Cis_straight_CO_DFT_B3LYP_def2SVP_smd_water_T_3MC_freezedScan_2_2.chk"
 B after Tr=    -0.000000    0.000000    0.000000
         Rot=    0.999998    0.001916    0.000005   -0.000021 Ang=   0.22 deg.
 Initial guess <Sx>= 0.0000 <Sy>= 0.0000 <Sz>= 1.0000 <S**2>= 2.0202 S= 1.0067
 Requested convergence on RMS density matrix=1.00D-08 within  32 cycles.
 Requested convergence on MAX density matrix=1.00D-06.
 Requested convergence on             energy=1.00D-06.
 No special actions if energy rises.
 Defaulting to unpruned grid for atomic number  44.
 Defaulting to unpruned grid for atomic number  44.
 Defaulting to unpruned grid for atomic number  44.
 Defaulting to unpruned grid for atomic number  44.
 Defaulting to unpruned grid for atomic number  44.
 Defaulting to unpruned grid for atomic number  44.
 Defaulting to unpruned grid for atomic number  44.
 Defaulting to unpruned grid for atomic number  44.
 Defaulting to unpruned grid for atomic number  44.
 Defaulting to unpruned grid for atomic number  44.
 Defaulting to unpruned grid for atomic number  44.
 Defaulting to unpruned grid for atomic number  44.
 Defaulting to unpruned grid for atomic number  44.
 Defaulting to unpruned grid for atomic number  44.
 Defaulting to unpruned grid for atomic number  44.
 Defaulting to unpruned grid for atomic number  44.
 Defaulting to unpruned grid for atomic number  44.
 Defaulting to unpruned grid for atomic number  44.
 Defaulting to unpruned grid for atomic number  44.
 Defaulting to unpruned grid for atomic number  44.
 Defaulting to unpruned grid for atomic number  44.
 Defaulting to unpruned grid for atomic number  44.
 Defaulting to unpruned grid for atomic number  44.
 Defaulting to unpruned grid for atomic number  44.
 Inv3:  Mode=1 IEnd=    66665388.
 Iteration    1 A*A^-1 deviation from unit magnitude is 4.11D-15 for   3288.
 Iteration    1 A*A^-1 deviation from orthogonality  is 2.33D-15 for   3827   2779.
 Iteration    1 A^-1*A deviation from unit magnitude is 4.44D-15 for    764.
 Iteration    1 A^-1*A deviation from orthogonality  is 1.89D-13 for   4060   3176.
 Error on total polarization charges =  0.07805
 SCF Done:  E(UB3LYP) =  -1998.94724331     A.U. after   17 cycles
            NFock= 17  Conv=0.24D-08     -V/T= 2.0403
 <Sx>= 0.0000 <Sy>= 0.0000 <Sz>= 1.0000 <S**2>= 2.0212 S= 1.0071
 <L.S>=  0.00000000000    
 SMD-CDS (non-electrostatic) energy       (kcal/mol) =      11.83
 (included in total energy above)
 Annihilation of the first spin contaminant:
 S**2 before annihilation     2.0212,   after     2.0003
 QCSCF skips out because SCF is already converged.

 **********************************************************************

            Population analysis using the SCF Density.

 **********************************************************************

 Orbital symmetries:
 Alpha Orbitals:
       Occupied  (A) (A) (A) (A) (A) (A) (A) (A) (A) (A) (A) (A)
                 (A) (A) (A) (A) (A) (A) (A) (A) (A) (A) (A) (A)
                 (A) (A) (A) (A) (A) (A) (A) (A) (A) (A) (A) (A)
                 (A) (A) (A) (A) (A) (A) (A) (A) (A) (A) (A) (A)
                 (A) (A) (A) (A) (A) (A) (A) (A) (A) (A) (A) (A)
                 (A) (A) (A) (A) (A) (A) (A) (A) (A) (A) (A) (A)
                 (A) (A) (A) (A) (A) (A) (A) (A) (A) (A) (A) (A)
                 (A) (A) (A) (A) (A) (A) (A) (A) (A) (A) (A) (A)
                 (A) (A) (A) (A) (A) (A) (A) (A) (A) (A) (A) (A)
                 (A) (A) (A) (A) (A) (A) (A) (A) (A) (A) (A) (A)
                 (A) (A) (A) (A) (A) (A) (A) (A) (A) (A) (A) (A)
                 (A) (A)
       Virtual   (A) (A) (A) (A) (A) (A) (A) (A) (A) (A) (A) (A)
                 (A) (A) (A) (A) (A) (A) (A) (A) (A) (A) (A) (A)
                 (A) (A) (A) (A) (A) (A) (A) (A) (A) (A) (A) (A)
                 (A) (A) (A) (A) (A) (A) (A) (A) (A) (A) (A) (A)
                 (A) (A) (A) (A) (A) (A) (A) (A) (A) (A) (A) (A)
                 (A) (A) (A) (A) (A) (A) (A) (A) (A) (A) (A) (A)
                 (A) (A) (A) (A) (A) (A) (A) (A) (A) (A) (A) (A)
                 (A) (A) (A) (A) (A) (A) (A) (A) (A) (A) (A) (A)
                 (A) (A) (A) (A) (A) (A) (A) (A) (A) (A) (A) (A)
                 (A) (A) (A) (A) (A) (A) (A) (A) (A) (A) (A) (A)
                 (A) (A) (A) (A) (A) (A) (A) (A) (A) (A) (A) (A)
                 (A) (A) (A) (A) (A) (A) (A) (A) (A) (A) (A) (A)
                 (A) (A) (A) (A) (A) (A) (A) (A) (A) (A) (A) (A)
                 (A) (A) (A) (A) (A) (A) (A) (A) (A) (A) (A) (A)
                 (A) (A) (A) (A) (A) (A) (A) (A) (A) (A) (A) (A)
                 (A) (A) (A) (A) (A) (A) (A) (A) (A) (A) (A) (A)
                 (A) (A) (A) (A) (A) (A) (A) (A) (A) (A) (A) (A)
                 (A) (A) (A) (A) (A) (A) (A) (A) (A) (A) (A) (A)
                 (A) (A) (A) (A) (A) (A) (A) (A) (A) (A) (A) (A)
                 (A) (A) (A) (A) (A) (A) (A) (A) (A) (A) (A) (A)
                 (A) (A) (A) (A) (A) (A) (A) (A) (A) (A) (A) (A)
                 (A) (A) (A) (A) (A) (A) (A) (A) (A) (A) (A) (A)
                 (A) (A) (A) (A) (A) (A) (A) (A) (A) (A) (A) (A)
                 (A) (A) (A) (A) (A) (A) (A) (A) (A) (A) (A) (A)
                 (A) (A) (A) (A) (A) (A) (A) (A) (A) (A) (A) (A)
                 (A) (A) (A) (A) (A) (A) (A) (A) (A) (A) (A) (A)
                 (A) (A) (A) (A) (A) (A) (A) (A) (A) (A) (A) (A)
                 (A) (A) (A) (A) (A) (A) (A) (A) (A) (A) (A) (A)
                 (A) (A) (A) (A) (A) (A) (A) (A) (A) (A) (A) (A)
                 (A) (A) (A) (A) (A) (A) (A) (A) (A) (A) (A) (A)
                 (A) (A) (A) (A) (A) (A) (A) (A) (A) (A) (A) (A)
                 (A) (A) (A) (A) (A) (A) (A) (A) (A) (A) (A) (A)
                 (A) (A) (A) (A) (A) (A) (A) (A) (A) (A) (A) (A)
                 (A) (A) (A) (A) (A) (A) (A) (A) (A) (A) (A) (A)
                 (A) (A) (A) (A) (A) (A) (A) (A) (A) (A) (A) (A)
                 (A) (A) (A) (A) (A) (A) (A) (A) (A) (A) (A) (A)
                 (A) (A) (A) (A) (A) (A) (A) (A) (A) (A) (A) (A)
                 (A) (A) (A) (A) (A) (A) (A) (A) (A) (A) (A) (A)
                 (A) (A) (A) (A) (A) (A) (A) (A) (A) (A) (A) (A)
                 (A) (A) (A) (A) (A) (A) (A) (A) (A) (A) (A) (A)
                 (A) (A) (A) (A) (A) (A) (A) (A) (A) (A) (A) (A)
                 (A) (A) (A) (A) (A) (A) (A) (A) (A) (A) (A) (A)
                 (A) (A) (A) (A) (A) (A) (A) (A) (A) (A) (A) (A)
                 (A) (A) (A) (A) (A) (A) (A) (A) (A) (A) (A) (A)
                 (A) (A) (A) (A) (A) (A) (A) (A) (A) (A) (A) (A)
                 (A) (A) (A) (A) (A) (A) (A) (A) (A) (A)
 Beta  Orbitals:
       Occupied  (A) (A) (A) (A) (A) (A) (A) (A) (A) (A) (A) (A)
                 (A) (A) (A) (A) (A) (A) (A) (A) (A) (A) (A) (A)
                 (A) (A) (A) (A) (A) (A) (A) (A) (A) (A) (A) (A)
                 (A) (A) (A) (A) (A) (A) (A) (A) (A) (A) (A) (A)
                 (A) (A) (A) (A) (A) (A) (A) (A) (A) (A) (A) (A)
                 (A) (A) (A) (A) (A) (A) (A) (A) (A) (A) (A) (A)
                 (A) (A) (A) (A) (A) (A) (A) (A) (A) (A) (A) (A)
                 (A) (A) (A) (A) (A) (A) (A) (A) (A) (A) (A) (A)
                 (A) (A) (A) (A) (A) (A) (A) (A) (A) (A) (A) (A)
                 (A) (A) (A) (A) (A) (A) (A) (A) (A) (A) (A) (A)
                 (A) (A) (A) (A) (A) (A) (A) (A) (A) (A) (A) (A)
       Virtual   (A) (A) (A) (A) (A) (A) (A) (A) (A) (A) (A) (A)
                 (A) (A) (A) (A) (A) (A) (A) (A) (A) (A) (A) (A)
                 (A) (A) (A) (A) (A) (A) (A) (A) (A) (A) (A) (A)
                 (A) (A) (A) (A) (A) (A) (A) (A) (A) (A) (A) (A)
                 (A) (A) (A) (A) (A) (A) (A) (A) (A) (A) (A) (A)
                 (A) (A) (A) (A) (A) (A) (A) (A) (A) (A) (A) (A)
                 (A) (A) (A) (A) (A) (A) (A) (A) (A) (A) (A) (A)
                 (A) (A) (A) (A) (A) (A) (A) (A) (A) (A) (A) (A)
                 (A) (A) (A) (A) (A) (A) (A) (A) (A) (A) (A) (A)
                 (A) (A) (A) (A) (A) (A) (A) (A) (A) (A) (A) (A)
                 (A) (A) (A) (A) (A) (A) (A) (A) (A) (A) (A) (A)
                 (A) (A) (A) (A) (A) (A) (A) (A) (A) (A) (A) (A)
                 (A) (A) (A) (A) (A) (A) (A) (A) (A) (A) (A) (A)
                 (A) (A) (A) (A) (A) (A) (A) (A) (A) (A) (A) (A)
                 (A) (A) (A) (A) (A) (A) (A) (A) (A) (A) (A) (A)
                 (A) (A) (A) (A) (A) (A) (A) (A) (A) (A) (A) (A)
                 (A) (A) (A) (A) (A) (A) (A) (A) (A) (A) (A) (A)
                 (A) (A) (A) (A) (A) (A) (A) (A) (A) (A) (A) (A)
                 (A) (A) (A) (A) (A) (A) (A) (A) (A) (A) (A) (A)
                 (A) (A) (A) (A) (A) (A) (A) (A) (A) (A) (A) (A)
                 (A) (A) (A) (A) (A) (A) (A) (A) (A) (A) (A) (A)
                 (A) (A) (A) (A) (A) (A) (A) (A) (A) (A) (A) (A)
                 (A) (A) (A) (A) (A) (A) (A) (A) (A) (A) (A) (A)
                 (A) (A) (A) (A) (A) (A) (A) (A) (A) (A) (A) (A)
                 (A) (A) (A) (A) (A) (A) (A) (A) (A) (A) (A) (A)
                 (A) (A) (A) (A) (A) (A) (A) (A) (A) (A) (A) (A)
                 (A) (A) (A) (A) (A) (A) (A) (A) (A) (A) (A) (A)
                 (A) (A) (A) (A) (A) (A) (A) (A) (A) (A) (A) (A)
                 (A) (A) (A) (A) (A) (A) (A) (A) (A) (A) (A) (A)
                 (A) (A) (A) (A) (A) (A) (A) (A) (A) (A) (A) (A)
                 (A) (A) (A) (A) (A) (A) (A) (A) (A) (A) (A) (A)
                 (A) (A) (A) (A) (A) (A) (A) (A) (A) (A) (A) (A)
                 (A) (A) (A) (A) (A) (A) (A) (A) (A) (A) (A) (A)
                 (A) (A) (A) (A) (A) (A) (A) (A) (A) (A) (A) (A)
                 (A) (A) (A) (A) (A) (A) (A) (A) (A) (A) (A) (A)
                 (A) (A) (A) (A) (A) (A) (A) (A) (A) (A) (A) (A)
                 (A) (A) (A) (A) (A) (A) (A) (A) (A) (A) (A) (A)
                 (A) (A) (A) (A) (A) (A) (A) (A) (A) (A) (A) (A)
                 (A) (A) (A) (A) (A) (A) (A) (A) (A) (A) (A) (A)
                 (A) (A) (A) (A) (A) (A) (A) (A) (A) (A) (A) (A)
                 (A) (A) (A) (A) (A) (A) (A) (A) (A) (A) (A) (A)
                 (A) (A) (A) (A) (A) (A) (A) (A) (A) (A) (A) (A)
                 (A) (A) (A) (A) (A) (A) (A) (A) (A) (A) (A) (A)
                 (A) (A) (A) (A) (A) (A) (A) (A) (A) (A) (A) (A)
                 (A) (A) (A) (A) (A) (A) (A) (A) (A) (A) (A) (A)
                 (A) (A) (A) (A) (A) (A) (A) (A) (A) (A) (A) (A)
 The electronic state is 3-A.
 Alpha  occ. eigenvalues --  -77.07613 -77.07345 -19.17198 -19.07876 -19.06366
 Alpha  occ. eigenvalues --  -14.33569 -10.26086 -10.23774 -10.23741 -10.20664
 Alpha  occ. eigenvalues --  -10.20641 -10.20524 -10.20391 -10.20201 -10.19489
 Alpha  occ. eigenvalues --  -10.19485 -10.19246 -10.19207 -10.17531 -10.17369
 Alpha  occ. eigenvalues --  -10.17334 -10.17288 -10.17278 -10.17190 -10.17167
 Alpha  occ. eigenvalues --  -10.17128 -10.17016 -10.17014 -10.16861 -10.16378
 Alpha  occ. eigenvalues --   -6.56817  -6.56554  -4.73423  -4.73368  -4.73162
 Alpha  occ. eigenvalues --   -4.73140  -4.73105  -4.72874  -3.04715  -1.89301
 Alpha  occ. eigenvalues --   -1.89255  -1.87544  -1.07478  -0.95186  -0.89048
 Alpha  occ. eigenvalues --   -0.87763  -0.82120  -0.81584  -0.79734  -0.79691
 Alpha  occ. eigenvalues --   -0.79438  -0.79189  -0.73421  -0.69811  -0.67890
 Alpha  occ. eigenvalues --   -0.67774  -0.67695  -0.67418  -0.66924  -0.66856
 Alpha  occ. eigenvalues --   -0.66635  -0.66533  -0.63572  -0.62702  -0.59447
 Alpha  occ. eigenvalues --   -0.59216  -0.54224  -0.53903  -0.53704  -0.51410
 Alpha  occ. eigenvalues --   -0.51100  -0.50034  -0.49324  -0.46927  -0.46728
 Alpha  occ. eigenvalues --   -0.45455  -0.45187  -0.44723  -0.44484  -0.44465
 Alpha  occ. eigenvalues --   -0.44112  -0.43794  -0.43647  -0.43030  -0.42917
 Alpha  occ. eigenvalues --   -0.42625  -0.42383  -0.42097  -0.41970  -0.41429
 Alpha  occ. eigenvalues --   -0.41246  -0.41008  -0.40327  -0.39879  -0.39486
 Alpha  occ. eigenvalues --   -0.38982  -0.38747  -0.38505  -0.37640  -0.37330
 Alpha  occ. eigenvalues --   -0.37150  -0.37088  -0.36999  -0.36810  -0.36546
 Alpha  occ. eigenvalues --   -0.36160  -0.35738  -0.35427  -0.35364  -0.34650
 Alpha  occ. eigenvalues --   -0.34321  -0.33986  -0.33565  -0.32891  -0.32587
 Alpha  occ. eigenvalues --   -0.32469  -0.32222  -0.32159  -0.31992  -0.31392
 Alpha  occ. eigenvalues --   -0.30670  -0.29900  -0.29356  -0.29072  -0.28816
 Alpha  occ. eigenvalues --   -0.28645  -0.27653  -0.26609  -0.26376  -0.25118
 Alpha  occ. eigenvalues --   -0.24009  -0.21748  -0.19564  -0.15295
 Alpha virt. eigenvalues --   -0.03747  -0.02223  -0.01691   0.01065   0.01861
 Alpha virt. eigenvalues --    0.04546   0.04876   0.05571   0.06280   0.06373
 Alpha virt. eigenvalues --    0.07438   0.07746   0.08023   0.08341   0.08608
 Alpha virt. eigenvalues --    0.08784   0.09299   0.09775   0.10151   0.10488
 Alpha virt. eigenvalues --    0.10686   0.11038   0.11410   0.11926   0.12373
 Alpha virt. eigenvalues --    0.12417   0.12811   0.13480   0.13639   0.13692
 Alpha virt. eigenvalues --    0.13985   0.14120   0.14149   0.14958   0.14984
 Alpha virt. eigenvalues --    0.15322   0.15532   0.16172   0.16345   0.16675
 Alpha virt. eigenvalues --    0.16903   0.17175   0.17578   0.17766   0.18025
 Alpha virt. eigenvalues --    0.18040   0.18564   0.18833   0.19324   0.19982
 Alpha virt. eigenvalues --    0.20276   0.20336   0.20794   0.20895   0.21234
 Alpha virt. eigenvalues --    0.21305   0.21397   0.21751   0.21878   0.22358
 Alpha virt. eigenvalues --    0.22847   0.23371   0.23624   0.24401   0.24760
 Alpha virt. eigenvalues --    0.24909   0.25438   0.25855   0.26166   0.26282
 Alpha virt. eigenvalues --    0.26931   0.27548   0.28201   0.28870   0.29913
 Alpha virt. eigenvalues --    0.30851   0.31429   0.31646   0.32722   0.34653
 Alpha virt. eigenvalues --    0.35730   0.36171   0.36564   0.38003   0.39468
 Alpha virt. eigenvalues --    0.39707   0.40032   0.40710   0.40886   0.41090
 Alpha virt. eigenvalues --    0.41432   0.41876   0.42545   0.43112   0.43128
 Alpha virt. eigenvalues --    0.43686   0.44221   0.45015   0.45695   0.45802
 Alpha virt. eigenvalues --    0.46436   0.46854   0.48335   0.48945   0.49051
 Alpha virt. eigenvalues --    0.49476   0.50352   0.52015   0.52509   0.52719
 Alpha virt. eigenvalues --    0.53005   0.53624   0.53654   0.54156   0.54580
 Alpha virt. eigenvalues --    0.54637   0.55763   0.56115   0.56709   0.57683
 Alpha virt. eigenvalues --    0.58311   0.58370   0.58570   0.59200   0.59634
 Alpha virt. eigenvalues --    0.59955   0.60365   0.60698   0.61322   0.61506
 Alpha virt. eigenvalues --    0.62094   0.62264   0.62468   0.63148   0.63327
 Alpha virt. eigenvalues --    0.63576   0.63814   0.64560   0.64719   0.64966
 Alpha virt. eigenvalues --    0.65409   0.65513   0.65811   0.66016   0.66092
 Alpha virt. eigenvalues --    0.66308   0.66500   0.66812   0.67272   0.67417
 Alpha virt. eigenvalues --    0.67569   0.67949   0.68262   0.68520   0.68687
 Alpha virt. eigenvalues --    0.68840   0.68996   0.69230   0.69475   0.69648
 Alpha virt. eigenvalues --    0.70032   0.70620   0.70702   0.70968   0.71233
 Alpha virt. eigenvalues --    0.71401   0.71506   0.71576   0.72312   0.72724
 Alpha virt. eigenvalues --    0.72753   0.72975   0.73336   0.73562   0.73584
 Alpha virt. eigenvalues --    0.73757   0.73994   0.74626   0.74981   0.75322
 Alpha virt. eigenvalues --    0.75431   0.75743   0.76169   0.76438   0.76730
 Alpha virt. eigenvalues --    0.77022   0.77671   0.78184   0.78353   0.78727
 Alpha virt. eigenvalues --    0.78826   0.79473   0.79869   0.80599   0.80695
 Alpha virt. eigenvalues --    0.81059   0.81460   0.81839   0.82385   0.82540
 Alpha virt. eigenvalues --    0.83221   0.83369   0.83791   0.84446   0.85134
 Alpha virt. eigenvalues --    0.85793   0.86332   0.86939   0.87504   0.88070
 Alpha virt. eigenvalues --    0.88746   0.89583   0.89655   0.90295   0.91363
 Alpha virt. eigenvalues --    0.92066   0.92212   0.93597   0.94766   0.95275
 Alpha virt. eigenvalues --    0.96160   0.96290   0.97786   0.99500   1.00371
 Alpha virt. eigenvalues --    1.02025   1.02390   1.03070   1.03261   1.03834
 Alpha virt. eigenvalues --    1.04787   1.05500   1.06503   1.06590   1.07682
 Alpha virt. eigenvalues --    1.08272   1.08619   1.09765   1.10750   1.11778
 Alpha virt. eigenvalues --    1.12442   1.12906   1.13881   1.15025   1.16148
 Alpha virt. eigenvalues --    1.16642   1.17255   1.17752   1.18800   1.19188
 Alpha virt. eigenvalues --    1.19878   1.20542   1.21160   1.21246   1.22218
 Alpha virt. eigenvalues --    1.22950   1.23601   1.24277   1.24822   1.24933
 Alpha virt. eigenvalues --    1.25923   1.26386   1.27389   1.28150   1.28732
 Alpha virt. eigenvalues --    1.29664   1.30363   1.30414   1.31125   1.31593
 Alpha virt. eigenvalues --    1.32600   1.33430   1.34770   1.35868   1.37560
 Alpha virt. eigenvalues --    1.37886   1.39314   1.42206   1.44010   1.44598
 Alpha virt. eigenvalues --    1.47542   1.48368   1.49544   1.49839   1.50286
 Alpha virt. eigenvalues --    1.51774   1.51951   1.53166   1.53421   1.53766
 Alpha virt. eigenvalues --    1.54237   1.54568   1.54858   1.55562   1.56299
 Alpha virt. eigenvalues --    1.56452   1.56743   1.56768   1.57722   1.57966
 Alpha virt. eigenvalues --    1.58531   1.58674   1.58942   1.59209   1.59523
 Alpha virt. eigenvalues --    1.59803   1.60338   1.61242   1.61879   1.62216
 Alpha virt. eigenvalues --    1.62709   1.63507   1.63870   1.64502   1.64900
 Alpha virt. eigenvalues --    1.65584   1.65913   1.66483   1.66644   1.67308
 Alpha virt. eigenvalues --    1.67989   1.68819   1.69638   1.70272   1.71059
 Alpha virt. eigenvalues --    1.72261   1.72964   1.74176   1.74785   1.75880
 Alpha virt. eigenvalues --    1.76524   1.76955   1.77161   1.77524   1.77685
 Alpha virt. eigenvalues --    1.78559   1.78969   1.79151   1.79383   1.79423
 Alpha virt. eigenvalues --    1.79727   1.80269   1.80510   1.81195   1.81544
 Alpha virt. eigenvalues --    1.81724   1.82569   1.82810   1.83512   1.83788
 Alpha virt. eigenvalues --    1.84101   1.84599   1.84642   1.84964   1.85341
 Alpha virt. eigenvalues --    1.85852   1.86193   1.86384   1.86926   1.87220
 Alpha virt. eigenvalues --    1.87438   1.87984   1.88547   1.89121   1.89329
 Alpha virt. eigenvalues --    1.89577   1.90724   1.90778   1.91463   1.91778
 Alpha virt. eigenvalues --    1.92647   1.92897   1.93143   1.93581   1.93738
 Alpha virt. eigenvalues --    1.94117   1.94243   1.94449   1.94859   1.95138
 Alpha virt. eigenvalues --    1.95541   1.95905   1.96197   1.96422   1.97093
 Alpha virt. eigenvalues --    1.97929   1.98305   1.98875   1.99146   1.99800
 Alpha virt. eigenvalues --    2.00030   2.00766   2.01020   2.01231   2.01823
 Alpha virt. eigenvalues --    2.02523   2.02611   2.03777   2.03958   2.04046
 Alpha virt. eigenvalues --    2.04553   2.06226   2.07845   2.08309   2.09922
 Alpha virt. eigenvalues --    2.11117   2.12310   2.15192   2.15900   2.16227
 Alpha virt. eigenvalues --    2.16720   2.17016   2.17690   2.17988   2.18448
 Alpha virt. eigenvalues --    2.18662   2.19012   2.19276   2.19785   2.20183
 Alpha virt. eigenvalues --    2.20697   2.21037   2.21612   2.22372   2.22756
 Alpha virt. eigenvalues --    2.22868   2.23399   2.24247   2.24360   2.25020
 Alpha virt. eigenvalues --    2.25284   2.27414   2.28380   2.28873   2.30046
 Alpha virt. eigenvalues --    2.31433   2.35280   2.38164   2.38620   2.39037
 Alpha virt. eigenvalues --    2.39373   2.40154   2.40715   2.41076   2.41401
 Alpha virt. eigenvalues --    2.42223   2.42283   2.42776   2.43051   2.43371
 Alpha virt. eigenvalues --    2.44499   2.45012   2.46021   2.47163   2.47299
 Alpha virt. eigenvalues --    2.47777   2.49052   2.50376   2.51459   2.52358
 Alpha virt. eigenvalues --    2.55362   2.55634   2.56062   2.56357   2.56509
 Alpha virt. eigenvalues --    2.56597   2.56792   2.57606   2.58473   2.61414
 Alpha virt. eigenvalues --    2.62253   2.62559   2.62874   2.63082   2.63579
 Alpha virt. eigenvalues --    2.63808   2.63959   2.64126   2.64403   2.65056
 Alpha virt. eigenvalues --    2.65189   2.65413   2.66073   2.66136   2.67796
 Alpha virt. eigenvalues --    2.69384   2.72499   2.72745   2.72953   2.73231
 Alpha virt. eigenvalues --    2.73893   2.74315   2.74997   2.76822   2.80685
 Alpha virt. eigenvalues --    2.81756   2.84374   2.86357   2.87163   2.87512
 Alpha virt. eigenvalues --    2.87853   2.88508   2.88865   2.89202   2.89430
 Alpha virt. eigenvalues --    2.89878   2.90795   2.91009   2.91793   2.92970
 Alpha virt. eigenvalues --    2.93195   2.93775   2.94485   2.95137   2.95724
 Alpha virt. eigenvalues --    2.95921   2.96288   2.96702   2.97044   2.97274
 Alpha virt. eigenvalues --    2.97867   2.98369   2.99114   2.99569   3.00011
 Alpha virt. eigenvalues --    3.02142   3.02435   3.02528   3.04207   3.05110
 Alpha virt. eigenvalues --    3.06037   3.07038   3.07618   3.08243   3.09029
 Alpha virt. eigenvalues --    3.09244   3.09850   3.10042   3.11346   3.12173
 Alpha virt. eigenvalues --    3.12709   3.14600   3.19450   3.20520   3.36683
 Alpha virt. eigenvalues --    3.62218   3.73786   3.79865   3.87864  45.27799
  Beta  occ. eigenvalues --  -77.07561 -77.07292 -19.17321 -19.07267 -19.06368
  Beta  occ. eigenvalues --  -14.33312 -10.26247 -10.23785 -10.23751 -10.20671
  Beta  occ. eigenvalues --  -10.20614 -10.20511 -10.20369 -10.20187 -10.19478
  Beta  occ. eigenvalues --  -10.19474 -10.19242 -10.19202 -10.17532 -10.17369
  Beta  occ. eigenvalues --  -10.17328 -10.17289 -10.17270 -10.17182 -10.17159
  Beta  occ. eigenvalues --  -10.17129 -10.17014 -10.17014 -10.16862 -10.16377
  Beta  occ. eigenvalues --   -6.56753  -6.56491  -4.73378  -4.73327  -4.73119
  Beta  occ. eigenvalues --   -4.73065  -4.73014  -4.72747  -2.98867  -1.85036
  Beta  occ. eigenvalues --   -1.81191  -1.80450  -1.07704  -0.94973  -0.88531
  Beta  occ. eigenvalues --   -0.86913  -0.82059  -0.81521  -0.79690  -0.79641
  Beta  occ. eigenvalues --   -0.79411  -0.79164  -0.73357  -0.69754  -0.67872
  Beta  occ. eigenvalues --   -0.67766  -0.67675  -0.67415  -0.66920  -0.66843
  Beta  occ. eigenvalues --   -0.66621  -0.66532  -0.63423  -0.62577  -0.59330
  Beta  occ. eigenvalues --   -0.59096  -0.54195  -0.53972  -0.53833  -0.51344
  Beta  occ. eigenvalues --   -0.51024  -0.49936  -0.49277  -0.46882  -0.46711
  Beta  occ. eigenvalues --   -0.45377  -0.45146  -0.44665  -0.44450  -0.44341
  Beta  occ. eigenvalues --   -0.44100  -0.43764  -0.43606  -0.43080  -0.42900
  Beta  occ. eigenvalues --   -0.42578  -0.42410  -0.42104  -0.41962  -0.41450
  Beta  occ. eigenvalues --   -0.41246  -0.41018  -0.40007  -0.39840  -0.38959
  Beta  occ. eigenvalues --   -0.38950  -0.38711  -0.38477  -0.37627  -0.37314
  Beta  occ. eigenvalues --   -0.37131  -0.37064  -0.36996  -0.36786  -0.36514
  Beta  occ. eigenvalues --   -0.36149  -0.35723  -0.35421  -0.35359  -0.34545
  Beta  occ. eigenvalues --   -0.34270  -0.33828  -0.33465  -0.32875  -0.32568
  Beta  occ. eigenvalues --   -0.32197  -0.32125  -0.31923  -0.31240  -0.30303
  Beta  occ. eigenvalues --   -0.29315  -0.28973  -0.28802  -0.28664  -0.27401
  Beta  occ. eigenvalues --   -0.26928  -0.25650  -0.25211  -0.25010  -0.24999
  Beta  occ. eigenvalues --   -0.21940  -0.20130
  Beta virt. eigenvalues --   -0.07924  -0.03817  -0.03524  -0.02217   0.00755
  Beta virt. eigenvalues --    0.01594   0.02190   0.04603   0.05265   0.06030
  Beta virt. eigenvalues --    0.06302   0.06907   0.07494   0.07892   0.08157
  Beta virt. eigenvalues --    0.08399   0.08734   0.08854   0.09440   0.09817
  Beta virt. eigenvalues --    0.10187   0.10563   0.10728   0.11107   0.11443
  Beta virt. eigenvalues --    0.11945   0.12400   0.12490   0.12928   0.13558
  Beta virt. eigenvalues --    0.13722   0.13761   0.14044   0.14154   0.14208
  Beta virt. eigenvalues --    0.14984   0.15034   0.15352   0.15577   0.16246
  Beta virt. eigenvalues --    0.16410   0.16723   0.17000   0.17271   0.17610
  Beta virt. eigenvalues --    0.17797   0.18049   0.18137   0.18612   0.18847
  Beta virt. eigenvalues --    0.19401   0.20041   0.20328   0.20415   0.20858
  Beta virt. eigenvalues --    0.20978   0.21276   0.21373   0.21467   0.21792
  Beta virt. eigenvalues --    0.21927   0.22476   0.22904   0.23415   0.23806
  Beta virt. eigenvalues --    0.24442   0.24806   0.24995   0.25508   0.25950
  Beta virt. eigenvalues --    0.26282   0.26434   0.27109   0.27611   0.28386
  Beta virt. eigenvalues --    0.29086   0.30205   0.30986   0.31573   0.31753
  Beta virt. eigenvalues --    0.32940   0.34787   0.35963   0.36367   0.36948
  Beta virt. eigenvalues --    0.38256   0.39593   0.39820   0.40156   0.40766
  Beta virt. eigenvalues --    0.41004   0.41251   0.41638   0.42035   0.42780
  Beta virt. eigenvalues --    0.43225   0.43280   0.43823   0.44318   0.45093
  Beta virt. eigenvalues --    0.45758   0.45916   0.46506   0.47015   0.48532
  Beta virt. eigenvalues --    0.49111   0.49231   0.49818   0.50529   0.52158
  Beta virt. eigenvalues --    0.52686   0.52907   0.53218   0.53679   0.53767
  Beta virt. eigenvalues --    0.54292   0.54733   0.54792   0.55860   0.56178
  Beta virt. eigenvalues --    0.56799   0.57762   0.58352   0.58508   0.58759
  Beta virt. eigenvalues --    0.59304   0.59700   0.60026   0.60535   0.60745
  Beta virt. eigenvalues --    0.61395   0.61531   0.62260   0.62357   0.62705
  Beta virt. eigenvalues --    0.63237   0.63352   0.63669   0.63874   0.64608
  Beta virt. eigenvalues --    0.64773   0.65003   0.65443   0.65574   0.65859
  Beta virt. eigenvalues --    0.66054   0.66144   0.66363   0.66568   0.66850
  Beta virt. eigenvalues --    0.67293   0.67516   0.67652   0.67992   0.68327
  Beta virt. eigenvalues --    0.68557   0.68731   0.68897   0.69028   0.69292
  Beta virt. eigenvalues --    0.69524   0.69747   0.70122   0.70660   0.70737
  Beta virt. eigenvalues --    0.71010   0.71315   0.71481   0.71596   0.71623
  Beta virt. eigenvalues --    0.72360   0.72774   0.72837   0.73047   0.73399
  Beta virt. eigenvalues --    0.73591   0.73614   0.73810   0.74065   0.74721
  Beta virt. eigenvalues --    0.75076   0.75439   0.75508   0.75819   0.76260
  Beta virt. eigenvalues --    0.76522   0.76827   0.77128   0.77738   0.78226
  Beta virt. eigenvalues --    0.78442   0.78818   0.78878   0.79556   0.79967
  Beta virt. eigenvalues --    0.80669   0.80780   0.81148   0.81576   0.81880
  Beta virt. eigenvalues --    0.82477   0.82652   0.83343   0.83432   0.83902
  Beta virt. eigenvalues --    0.84497   0.85194   0.85878   0.86460   0.87090
  Beta virt. eigenvalues --    0.87622   0.88220   0.88816   0.89706   0.89830
  Beta virt. eigenvalues --    0.90450   0.91431   0.92187   0.92408   0.93726
  Beta virt. eigenvalues --    0.94939   0.95379   0.96363   0.96542   0.97958
  Beta virt. eigenvalues --    0.99683   1.00702   1.02187   1.02608   1.03187
  Beta virt. eigenvalues --    1.03437   1.04062   1.04968   1.05583   1.06594
  Beta virt. eigenvalues --    1.06875   1.07741   1.08431   1.08824   1.09997
  Beta virt. eigenvalues --    1.10860   1.11876   1.12573   1.12980   1.14068
  Beta virt. eigenvalues --    1.15213   1.16242   1.16689   1.17275   1.17952
  Beta virt. eigenvalues --    1.18892   1.19335   1.20048   1.20688   1.21286
  Beta virt. eigenvalues --    1.21389   1.22338   1.23129   1.23808   1.24342
  Beta virt. eigenvalues --    1.24942   1.24973   1.26006   1.26492   1.27438
  Beta virt. eigenvalues --    1.28224   1.28862   1.29749   1.30580   1.30593
  Beta virt. eigenvalues --    1.31369   1.31713   1.32947   1.33678   1.35075
  Beta virt. eigenvalues --    1.36086   1.37633   1.37998   1.39450   1.42348
  Beta virt. eigenvalues --    1.44082   1.44746   1.47673   1.48453   1.49595
  Beta virt. eigenvalues --    1.49940   1.50362   1.51890   1.52058   1.53287
  Beta virt. eigenvalues --    1.53553   1.53810   1.54271   1.54617   1.54914
  Beta virt. eigenvalues --    1.55620   1.56353   1.56509   1.56801   1.56826
  Beta virt. eigenvalues --    1.57771   1.58037   1.58579   1.58731   1.58981
  Beta virt. eigenvalues --    1.59245   1.59545   1.59864   1.60406   1.61288
  Beta virt. eigenvalues --    1.62019   1.62325   1.62823   1.63588   1.63973
  Beta virt. eigenvalues --    1.64637   1.65100   1.65699   1.66007   1.66569
  Beta virt. eigenvalues --    1.66764   1.67731   1.68210   1.69192   1.69754
  Beta virt. eigenvalues --    1.70748   1.71107   1.72436   1.73116   1.74187
  Beta virt. eigenvalues --    1.74834   1.76104   1.76583   1.77029   1.77248
  Beta virt. eigenvalues --    1.77555   1.77733   1.78623   1.79088   1.79186
  Beta virt. eigenvalues --    1.79510   1.79600   1.79801   1.80376   1.80709
  Beta virt. eigenvalues --    1.81316   1.81632   1.81780   1.82612   1.82848
  Beta virt. eigenvalues --    1.83671   1.83889   1.84431   1.84687   1.84737
  Beta virt. eigenvalues --    1.85051   1.85519   1.85893   1.86326   1.86440
  Beta virt. eigenvalues --    1.87053   1.87333   1.87559   1.88209   1.89132
  Beta virt. eigenvalues --    1.89627   1.90790   1.90941   1.91532   1.92356
  Beta virt. eigenvalues --    1.92517   1.92702   1.93152   1.93269   1.93803
  Beta virt. eigenvalues --    1.94036   1.94222   1.94367   1.94494   1.95092
  Beta virt. eigenvalues --    1.95303   1.95459   1.95943   1.96219   1.96798
  Beta virt. eigenvalues --    1.97130   1.97364   1.98226   1.98618   1.99230
  Beta virt. eigenvalues --    1.99387   1.99988   2.00460   2.00799   2.01158
  Beta virt. eigenvalues --    2.01483   2.01952   2.02599   2.02697   2.04016
  Beta virt. eigenvalues --    2.04148   2.04546   2.07500   2.07711   2.08914
  Beta virt. eigenvalues --    2.09852   2.10513   2.11770   2.13127   2.15406
  Beta virt. eigenvalues --    2.15944   2.16272   2.16764   2.17093   2.17733
  Beta virt. eigenvalues --    2.18092   2.18481   2.18710   2.19096   2.19346
  Beta virt. eigenvalues --    2.19885   2.20260   2.20758   2.21113   2.21706
  Beta virt. eigenvalues --    2.22441   2.22858   2.22948   2.23434   2.24324
  Beta virt. eigenvalues --    2.24449   2.25115   2.25418   2.27479   2.28417
  Beta virt. eigenvalues --    2.29256   2.30107   2.32934   2.35336   2.38226
  Beta virt. eigenvalues --    2.38687   2.39057   2.39402   2.40220   2.40783
  Beta virt. eigenvalues --    2.41114   2.41433   2.42255   2.42317   2.42837
  Beta virt. eigenvalues --    2.43065   2.43426   2.44540   2.45151   2.46041
  Beta virt. eigenvalues --    2.47222   2.47349   2.47809   2.49068   2.50425
  Beta virt. eigenvalues --    2.51495   2.52378   2.55384   2.55652   2.56093
  Beta virt. eigenvalues --    2.56382   2.56532   2.56625   2.56819   2.57626
  Beta virt. eigenvalues --    2.58501   2.61431   2.62231   2.62534   2.62884
  Beta virt. eigenvalues --    2.63102   2.63593   2.63823   2.63985   2.64148
  Beta virt. eigenvalues --    2.64415   2.64872   2.65065   2.65433   2.65998
  Beta virt. eigenvalues --    2.66282   2.67687   2.69437   2.72619   2.72900
  Beta virt. eigenvalues --    2.73002   2.73342   2.74004   2.74410   2.75868
  Beta virt. eigenvalues --    2.77258   2.80821   2.81897   2.84411   2.86403
  Beta virt. eigenvalues --    2.87188   2.87545   2.87868   2.88548   2.88947
  Beta virt. eigenvalues --    2.89244   2.89447   2.89895   2.90943   2.91215
  Beta virt. eigenvalues --    2.92328   2.92985   2.93244   2.93847   2.94502
  Beta virt. eigenvalues --    2.95230   2.95796   2.95952   2.96378   2.96768
  Beta virt. eigenvalues --    2.97056   2.97368   2.98068   2.98470   2.99154
  Beta virt. eigenvalues --    2.99649   3.00142   3.02220   3.02459   3.03417
  Beta virt. eigenvalues --    3.04278   3.05181   3.06093   3.07057   3.07763
  Beta virt. eigenvalues --    3.08384   3.09049   3.09581   3.09912   3.10051
  Beta virt. eigenvalues --    3.11352   3.12184   3.12727   3.14722   3.19230
  Beta virt. eigenvalues --    3.20331   3.36976   3.62330   3.73709   3.80427
  Beta virt. eigenvalues --    3.87898  45.15333
          Condensed to atoms (all electrons):
          Atomic-Atomic Spin Densities.
 Mulliken charges and spin densities:
               1          2
     1  P    0.267192   0.110326
     2  N   -0.117153   0.061761
     3  C    0.018920   0.005243
     4  H    0.058484   0.001114
     5  H    0.089626  -0.000209
     6  O   -0.539006  -0.004711
     7  P    0.269041   0.114063
     8  C   -0.047442  -0.005581
     9  C   -0.003322   0.004897
    10  H    0.008525   0.001325
    11  C    0.065214  -0.004864
    12  H    0.022103   0.000096
    13  C   -0.006682   0.004897
    14  H    0.008083   0.001343
    15  C   -0.039540  -0.005618
    16  C    0.014070   0.006147
    17  H    0.060608   0.001268
    18  H    0.088502  -0.000223
    19  Ru  -0.025416   1.605400
    20  H    0.169499   0.000814
    21  C   -0.378803   0.004251
    22  C   -0.389226   0.007031
    23  C   -0.387021   0.009027
    24  C   -0.390825   0.003553
    25  C    0.073556  -0.000602
    26  H    0.023413   0.000053
    27  H    0.038927   0.001977
    28  H    0.015632  -0.000154
    29  C    0.082412  -0.000049
    30  H    0.012384  -0.000105
    31  H    0.030171   0.002282
    32  H    0.010202   0.000012
    33  C    0.077970   0.000965
    34  H    0.010516   0.001994
    35  H    0.035592  -0.000025
    36  H    0.025002   0.000026
    37  C    0.080995   0.001759
    38  H    0.011179  -0.000073
    39  H    0.013754   0.002550
    40  H    0.023904  -0.000101
    41  C    0.072489  -0.000166
    42  H    0.014094   0.000105
    43  H    0.035414   0.000016
    44  H    0.035908   0.000958
    45  C    0.058064   0.000957
    46  H    0.026268  -0.001355
    47  H    0.035149   0.000119
    48  H    0.017920  -0.000146
    49  C    0.073477   0.000204
    50  H    0.004882  -0.000163
    51  H    0.013366   0.000705
    52  H    0.003549   0.000045
    53  C    0.079363   0.001420
    54  H    0.007979   0.002035
    55  H    0.032299  -0.000044
    56  H    0.024916  -0.000041
    57  C    0.071410  -0.000665
    58  H    0.021806   0.000037
    59  H    0.027819   0.000674
    60  H    0.010184  -0.000059
    61  C    0.077879   0.000145
    62  H    0.040739   0.001282
    63  H    0.020838   0.000103
    64  H    0.011866  -0.000332
    65  C    0.080923   0.001565
    66  H    0.009216  -0.000018
    67  H    0.012003   0.002339
    68  H    0.021800  -0.000088
    69  C    0.069351  -0.000270
    70  H    0.012096   0.000010
    71  H    0.036375   0.000029
    72  H    0.036948   0.001138
    73  O   -0.543080   0.193449
    74  C    0.047923  -0.096265
    75  H    0.176692  -0.001320
    76  O   -0.158963  -0.038260
 Sum of Mulliken charges =  -0.00000   2.00000
 Mulliken charges and spin densities with hydrogens summed into heavy atoms:
               1          2
     1  P    0.267192   0.110326
     2  N   -0.117153   0.061761
     3  C    0.167030   0.006147
     6  O   -0.369508  -0.003896
     7  P    0.269041   0.114063
     8  C   -0.047442  -0.005581
     9  C    0.005203   0.006222
    11  C    0.087317  -0.004768
    13  C    0.001401   0.006240
    15  C   -0.039540  -0.005618
    16  C    0.163180   0.007193
    19  Ru  -0.025416   1.605400
    21  C   -0.378803   0.004251
    22  C   -0.389226   0.007031
    23  C   -0.387021   0.009027
    24  C   -0.390825   0.003553
    25  C    0.151529   0.001274
    29  C    0.135169   0.002141
    33  C    0.149080   0.002961
    37  C    0.129832   0.004135
    41  C    0.157906   0.000913
    45  C    0.137401  -0.000425
    49  C    0.095274   0.000790
    53  C    0.144557   0.003370
    57  C    0.131219  -0.000013
    61  C    0.151321   0.001197
    65  C    0.123941   0.003797
    69  C    0.154770   0.000907
    73  O   -0.366388   0.192129
    74  C    0.047923  -0.096265
    76  O   -0.158963  -0.038260
 Electronic spatial extent (au):  <R**2>=          13777.7974
 Charge=              0.0000 electrons
 Dipole moment (field-independent basis, Debye):
    X=              2.1847    Y=             13.5078    Z=              0.0360  Tot=             13.6834
 Quadrupole moment (field-independent basis, Debye-Ang):
   XX=           -174.5522   YY=           -227.1201   ZZ=           -232.5361
   XY=             -2.1390   XZ=            -11.9291   YZ=              4.5461
 Traceless Quadrupole moment (field-independent basis, Debye-Ang):
   XX=             36.8506   YY=            -15.7174   ZZ=            -21.1333
   XY=             -2.1390   XZ=            -11.9291   YZ=              4.5461
 Octapole moment (field-independent basis, Debye-Ang**2):
  XXX=             15.2413  YYY=            126.3742  ZZZ=            -18.1594  XYY=              5.2053
  XXY=            -14.7681  XXZ=             -2.0189  XZZ=             14.7322  YZZ=             -7.8610
  YYZ=            -10.9586  XYZ=              5.1998
 Hexadecapole moment (field-independent basis, Debye-Ang**3):
 XXXX=         -10509.6607 YYYY=          -4296.2940 ZZZZ=          -3434.9448 XXXY=            -10.5410
 XXXZ=            -61.7671 YYYX=              3.5012 YYYZ=             54.4427 ZZZX=            -47.2607
 ZZZY=             43.1308 XXYY=          -2486.0053 XXZZ=          -2300.6801 YYZZ=          -1306.9328
 XXYZ=              4.9178 YYXZ=            -77.9521 ZZXY=            -18.5255
 N-N= 4.457189149750D+03 E-N=-1.356902510464D+04  KE= 1.921437654274D+03
                          Isotropic Fermi Contact Couplings
        Atom                 a.u.       MegaHertz       Gauss      10(-4) cm-1
     1  P(31)              0.15134     137.04231      48.90010      45.71239
     2  N(14)              0.16671      26.93290       9.61033       8.98385
     3  C(13)             -0.00419      -2.35301      -0.83961      -0.78488
     4  H(1)               0.00051       1.14431       0.40832       0.38170
     5  H(1)              -0.00007      -0.15272      -0.05450      -0.05094
     6  O(17)              0.00232      -0.70260      -0.25070      -0.23436
     7  P(31)              0.14322     129.69429      46.27815      43.26136
     8  C(13)             -0.00562      -3.16058      -1.12777      -1.05426
     9  C(13)              0.00652       3.66208       1.30672       1.22154
    10  H(1)               0.00019       0.41882       0.14945       0.13970
    11  C(13)             -0.00099      -0.55829      -0.19921      -0.18622
    12  H(1)               0.00003       0.06892       0.02459       0.02299
    13  C(13)              0.00647       3.63900       1.29848       1.21384
    14  H(1)               0.00020       0.44349       0.15825       0.14793
    15  C(13)             -0.00563      -3.16251      -1.12846      -1.05490
    16  C(13)             -0.00351      -1.97488      -0.70469      -0.65875
    17  H(1)               0.00053       1.18287       0.42208       0.39456
    18  H(1)              -0.00016      -0.35106      -0.12527      -0.11710
    19  Ru(99)            -0.00002       0.00167       0.00060       0.00056
    20  H(1)               0.00058       1.29948       0.46369       0.43346
    21  C(13)              0.00563       3.16491       1.12932       1.05570
    22  C(13)              0.00828       4.65343       1.66046       1.55222
    23  C(13)              0.01033       5.80913       2.07284       1.93772
    24  C(13)              0.00527       2.95943       1.05600       0.98716
    25  C(13)             -0.00042      -0.23428      -0.08360      -0.07815
    26  H(1)              -0.00000      -0.00639      -0.00228      -0.00213
    27  H(1)               0.00001       0.03141       0.01121       0.01048
    28  H(1)              -0.00005      -0.10066      -0.03592      -0.03358
    29  C(13)              0.00109       0.61449       0.21927       0.20497
    30  H(1)              -0.00002      -0.05129      -0.01830      -0.01711
    31  H(1)              -0.00002      -0.03736      -0.01333      -0.01246
    32  H(1)              -0.00000      -0.00979      -0.00349      -0.00327
    33  C(13)              0.00339       1.90702       0.68047       0.63611
    34  H(1)               0.00063       1.40361       0.50084       0.46819
    35  H(1)               0.00002       0.03851       0.01374       0.01285
    36  H(1)               0.00006       0.12374       0.04415       0.04127
    37  C(13)              0.00444       2.49389       0.88988       0.83187
    38  H(1)               0.00002       0.03786       0.01351       0.01263
    39  H(1)               0.00082       1.82684       0.65186       0.60937
    40  H(1)               0.00001       0.01895       0.00676       0.00632
    41  C(13)             -0.00036      -0.20065      -0.07160      -0.06693
    42  H(1)               0.00002       0.05518       0.01969       0.01841
    43  H(1)              -0.00000      -0.00471      -0.00168      -0.00157
    44  H(1)              -0.00002      -0.03817      -0.01362      -0.01273
    45  C(13)             -0.00047      -0.26166      -0.09337      -0.08728
    46  H(1)               0.00002       0.05044       0.01800       0.01683
    47  H(1)               0.00001       0.03315       0.01183       0.01106
    48  H(1)              -0.00004      -0.09316      -0.03324      -0.03107
    49  C(13)              0.00035       0.19553       0.06977       0.06522
    50  H(1)              -0.00004      -0.08865      -0.03163      -0.02957
    51  H(1)              -0.00000      -0.00259      -0.00093      -0.00086
    52  H(1)               0.00000       0.00589       0.00210       0.00197
    53  C(13)              0.00432       2.42674       0.86592       0.80947
    54  H(1)               0.00061       1.35790       0.48453       0.45295
    55  H(1)               0.00000       0.00570       0.00203       0.00190
    56  H(1)               0.00003       0.06344       0.02264       0.02116
    57  C(13)             -0.00066      -0.37015      -0.13208      -0.12347
    58  H(1)              -0.00001      -0.02773      -0.00990      -0.00925
    59  H(1)               0.00004       0.09361       0.03340       0.03123
    60  H(1)              -0.00001      -0.02078      -0.00742      -0.00693
    61  C(13)              0.00041       0.23260       0.08300       0.07759
    62  H(1)              -0.00002      -0.04613      -0.01646      -0.01539
    63  H(1)              -0.00001      -0.01409      -0.00503      -0.00470
    64  H(1)              -0.00011      -0.24967      -0.08909      -0.08328
    65  C(13)              0.00410       2.30702       0.82320       0.76954
    66  H(1)               0.00003       0.07201       0.02569       0.02402
    67  H(1)               0.00077       1.72992       0.61728       0.57704
    68  H(1)               0.00001       0.01794       0.00640       0.00598
    69  C(13)             -0.00030      -0.16910      -0.06034      -0.05641
    70  H(1)               0.00000       0.00890       0.00318       0.00297
    71  H(1)               0.00000       0.00897       0.00320       0.00299
    72  H(1)              -0.00002      -0.05583      -0.01992      -0.01862
    73  O(17)              0.16279     -49.34147     -17.60626     -16.45854
    74  C(13)             -0.05342     -30.02570     -10.71392     -10.01550
    75  H(1)              -0.00265      -5.92839      -2.11540      -1.97750
    76  O(17)             -0.01712       5.19006       1.85194       1.73122
 --------------------------------------------------------
       Center         ----  Spin Dipole Couplings  ----
                      3XX-RR        3YY-RR        3ZZ-RR
 --------------------------------------------------------
     1   Atom        0.107746     -0.004068     -0.103678
     2   Atom       -0.101847      0.188830     -0.086983
     3   Atom        0.000203      0.010745     -0.010948
     4   Atom        0.001736      0.001767     -0.003503
     5   Atom       -0.000828      0.000143      0.000685
     6   Atom        0.012209      0.014649     -0.026858
     7   Atom        0.107483      0.000481     -0.107964
     8   Atom        0.003838      0.010356     -0.014194
     9   Atom       -0.004126      0.006859     -0.002733
    10   Atom       -0.000876      0.002686     -0.001810
    11   Atom       -0.001097      0.006471     -0.005374
    12   Atom       -0.000862      0.002038     -0.001176
    13   Atom       -0.004220      0.006810     -0.002590
    14   Atom       -0.000940      0.002612     -0.001672
    15   Atom        0.000763      0.010142     -0.010905
    16   Atom       -0.000495      0.011018     -0.010522
    17   Atom        0.001601      0.001818     -0.003419
    18   Atom       -0.001099     -0.000343      0.001442
    19   Atom        0.255165      0.341382     -0.596547
    20   Atom       -0.011587     -0.011102      0.022689
    21   Atom        0.003924     -0.005197      0.001273
    22   Atom        0.011472     -0.008257     -0.003215
    23   Atom        0.014189     -0.009351     -0.004837
    24   Atom        0.003067     -0.005179      0.002112
    25   Atom       -0.000531     -0.000222      0.000753
    26   Atom       -0.000480      0.001976     -0.001496
    27   Atom       -0.003641     -0.001179      0.004820
    28   Atom       -0.000514     -0.000667      0.001180
    29   Atom        0.002309     -0.003856      0.001547
    30   Atom        0.000209     -0.001975      0.001766
    31   Atom        0.000041     -0.004664      0.004623
    32   Atom        0.002759     -0.002261     -0.000498
    33   Atom        0.004992     -0.001652     -0.003339
    34   Atom        0.001178     -0.000876     -0.000302
    35   Atom        0.003261     -0.001649     -0.001612
    36   Atom        0.001758      0.000058     -0.001816
    37   Atom        0.005064     -0.003344     -0.001719
    38   Atom        0.003337     -0.001463     -0.001875
    39   Atom        0.002122     -0.001253     -0.000869
    40   Atom        0.001651     -0.001359     -0.000291
    41   Atom        0.005614     -0.001845     -0.003770
    42   Atom        0.002992     -0.000948     -0.002044
    43   Atom        0.004215     -0.001908     -0.002307
    44   Atom        0.006364     -0.001157     -0.005207
    45   Atom        0.002742     -0.004797      0.002055
    46   Atom        0.002226     -0.003492      0.001266
    47   Atom        0.000201     -0.004755      0.004554
    48   Atom        0.001363     -0.001958      0.000595
    49   Atom        0.002565     -0.004093      0.001528
    50   Atom        0.000832     -0.002167      0.001335
    51   Atom        0.000849     -0.006125      0.005276
    52   Atom        0.003566     -0.002691     -0.000874
    53   Atom        0.006085     -0.002181     -0.003905
    54   Atom        0.001369     -0.000963     -0.000406
    55   Atom        0.003484     -0.001739     -0.001745
    56   Atom        0.001945     -0.000073     -0.001872
    57   Atom       -0.000235      0.000139      0.000096
    58   Atom       -0.000349      0.002254     -0.001905
    59   Atom       -0.003802      0.000384      0.003418
    60   Atom       -0.000359     -0.000444      0.000802
    61   Atom        0.001224     -0.004080      0.002857
    62   Atom        0.000233     -0.003451      0.003218
    63   Atom       -0.001275     -0.003917      0.005192
    64   Atom        0.000810     -0.001803      0.000993
    65   Atom        0.004718     -0.003240     -0.001479
    66   Atom        0.003258     -0.001493     -0.001765
    67   Atom        0.001896     -0.001197     -0.000700
    68   Atom        0.001413     -0.001293     -0.000120
    69   Atom        0.005591     -0.001872     -0.003720
    70   Atom        0.002818     -0.000940     -0.001878
    71   Atom        0.004362     -0.001926     -0.002436
    72   Atom        0.006559     -0.001111     -0.005448
    73   Atom        0.278751      0.150148     -0.428899
    74   Atom       -0.038478     -0.053079      0.091558
    75   Atom       -0.032822     -0.001181      0.034003
    76   Atom       -0.034703     -0.061927      0.096629
 --------------------------------------------------------
                        XY            XZ            YZ
 --------------------------------------------------------
     1   Atom        0.157818     -0.054222     -0.042363
     2   Atom        0.007810      0.009357      0.015724
     3   Atom        0.001610     -0.002567     -0.004513
     4   Atom        0.004122     -0.001438     -0.002030
     5   Atom        0.004773     -0.005004     -0.006360
     6   Atom        0.014969     -0.010008     -0.015303
     7   Atom       -0.163248     -0.054069      0.040763
     8   Atom        0.009543     -0.007446     -0.003228
     9   Atom        0.001250      0.001215     -0.000569
    10   Atom        0.001884     -0.000420     -0.000829
    11   Atom        0.000194     -0.002677      0.000458
    12   Atom        0.000058     -0.000144      0.000152
    13   Atom       -0.001429      0.001067      0.000337
    14   Atom       -0.001747     -0.000521      0.001133
    15   Atom       -0.008368     -0.010400      0.005995
    16   Atom       -0.001006     -0.003035      0.005081
    17   Atom       -0.004029     -0.001599      0.002210
    18   Atom       -0.003829     -0.004832      0.006284
    19   Atom        0.001249     -0.013797      0.043271
    20   Atom       -0.001223     -0.010126      0.004858
    21   Atom       -0.007458      0.011078     -0.006644
    22   Atom        0.006021     -0.014110     -0.005071
    23   Atom       -0.007525     -0.014939      0.005715
    24   Atom        0.006369      0.010708      0.006216
    25   Atom        0.003240      0.003974      0.004452
    26   Atom        0.003174      0.002246      0.003323
    27   Atom        0.002592      0.005049      0.008146
    28   Atom        0.001362      0.002204      0.002371
    29   Atom        0.000356      0.006043      0.000113
    30   Atom        0.000362      0.003069      0.000348
    31   Atom       -0.000677      0.008368     -0.001896
    32   Atom       -0.000652      0.003570     -0.000562
    33   Atom        0.004209      0.002096      0.000952
    34   Atom        0.001398      0.001537      0.000886
    35   Atom        0.001051      0.001124      0.000447
    36   Atom        0.002756      0.000803      0.000398
    37   Atom        0.003452     -0.005277     -0.002074
    38   Atom        0.001705     -0.000996     -0.000019
    39   Atom        0.000005     -0.002012      0.000121
    40   Atom        0.001453     -0.002740     -0.001437
    41   Atom       -0.002626     -0.000695      0.000012
    42   Atom       -0.001977     -0.001102      0.000375
    43   Atom       -0.001298      0.000838     -0.000260
    44   Atom       -0.005255      0.000987     -0.000533
    45   Atom       -0.001948     -0.006727      0.002117
    46   Atom       -0.005188     -0.009883      0.006138
    47   Atom        0.000349     -0.006551     -0.000109
    48   Atom       -0.001125     -0.003462      0.001362
    49   Atom       -0.000344      0.006119      0.000025
    50   Atom       -0.000509      0.003263     -0.000345
    51   Atom        0.000509      0.009100      0.001250
    52   Atom        0.000984      0.004047      0.000847
    53   Atom       -0.004530      0.001998     -0.000823
    54   Atom       -0.001497      0.001530     -0.000875
    55   Atom       -0.000919      0.001013     -0.000388
    56   Atom       -0.002826      0.000628     -0.000222
    57   Atom       -0.003763      0.003915     -0.004395
    58   Atom       -0.003470      0.002049     -0.003033
    59   Atom       -0.003841      0.005123     -0.008205
    60   Atom       -0.001755      0.002255     -0.002449
    61   Atom        0.001569     -0.006805     -0.002075
    62   Atom        0.003859     -0.009457     -0.006077
    63   Atom       -0.000174     -0.005710      0.000130
    64   Atom        0.000892     -0.003309     -0.001280
    65   Atom       -0.003071     -0.005152      0.001865
    66   Atom       -0.001580     -0.001137      0.000074
    67   Atom        0.000015     -0.002038     -0.000111
    68   Atom       -0.001311     -0.002764      0.001401
    69   Atom        0.002594     -0.001272     -0.000228
    70   Atom        0.001907     -0.001387     -0.000467
    71   Atom        0.001367      0.000520      0.000233
    72   Atom        0.005512     -0.000014      0.000171
    73   Atom        0.015244     -0.043633      0.060200
    74   Atom       -0.003153      0.005389     -0.005314
    75   Atom        0.000698      0.004035      0.021747
    76   Atom       -0.001883      0.007437     -0.008395
 --------------------------------------------------------


 ---------------------------------------------------------------------------------
              Anisotropic Spin Dipole Couplings in Principal Axis System
 ---------------------------------------------------------------------------------

       Atom             a.u.   MegaHertz   Gauss  10(-4) cm-1        Axes

              Baa    -0.1200   -25.953    -9.261    -8.657 -0.2080  0.5726  0.7930
     1 P(31)  Bbb    -0.1132   -24.480    -8.735    -8.166 -0.5641  0.5921 -0.5755
              Bcc     0.2333    50.433    17.996    16.823  0.7991  0.5670 -0.1999
 
              Baa    -0.1064    -4.102    -1.464    -1.368  0.9008 -0.0007 -0.4343
     2 N(14)  Bbb    -0.0836    -3.224    -1.150    -1.075  0.4334 -0.0643  0.8989
              Bcc     0.1900     7.326     2.614     2.444  0.0286  0.9979  0.0576
 
              Baa    -0.0122    -1.643    -0.586    -0.548  0.1767  0.1776  0.9681
     3 C(13)  Bbb     0.0002     0.030     0.011     0.010  0.9683 -0.2077 -0.1386
              Bcc     0.0120     1.613     0.576     0.538  0.1764  0.9619 -0.2087
 
              Baa    -0.0042    -2.238    -0.799    -0.747  0.0106  0.3158  0.9488
     4 H(1)   Bbb    -0.0023    -1.218    -0.435    -0.406  0.7356 -0.6452  0.2065
              Bcc     0.0065     3.456     1.233     1.153  0.6774  0.6957 -0.2391
 
              Baa    -0.0060    -3.176    -1.133    -1.059  0.0121  0.7174  0.6966
     5 H(1)   Bbb    -0.0049    -2.623    -0.936    -0.875  0.8607 -0.3620  0.3579
              Bcc     0.0109     5.799     2.069     1.934 -0.5089 -0.5952  0.6218
 
              Baa    -0.0325     2.351     0.839     0.784  0.1231  0.2709  0.9547
     6 O(17)  Bbb    -0.0013     0.097     0.035     0.032  0.7656 -0.6380  0.0823
              Bcc     0.0338    -2.448    -0.873    -0.817  0.6314  0.7208 -0.2859
 
              Baa    -0.1216   -26.287    -9.380    -8.768 -0.0384 -0.3623  0.9313
     7 P(31)  Bbb    -0.1174   -25.378    -9.055    -8.465  0.6062  0.7324  0.3099
              Bcc     0.2390    51.665    18.435    17.233  0.7944 -0.5765 -0.1915
 
              Baa    -0.0169    -2.264    -0.808    -0.755  0.3417 -0.0084  0.9398
     8 C(13)  Bbb    -0.0018    -0.244    -0.087    -0.081  0.7223 -0.6374 -0.2683
              Bcc     0.0187     2.508     0.895     0.837  0.6013  0.7705 -0.2118
 
              Baa    -0.0050    -0.669    -0.239    -0.223  0.8622 -0.1147 -0.4935
     9 C(13)  Bbb    -0.0020    -0.273    -0.097    -0.091  0.4953 -0.0141  0.8686
              Bcc     0.0070     0.942     0.336     0.314  0.1065  0.9933 -0.0446
 
              Baa    -0.0020    -1.056    -0.377    -0.352  0.2413  0.0745  0.9676
    10 H(1)   Bbb    -0.0017    -0.894    -0.319    -0.298  0.8879 -0.4194 -0.1892
              Bcc     0.0037     1.950     0.696     0.650  0.3917  0.9047 -0.1673
 
              Baa    -0.0067    -0.896    -0.320    -0.299  0.4331 -0.0377  0.9006
    11 C(13)  Bbb     0.0002     0.026     0.009     0.009  0.9013  0.0037 -0.4332
              Bcc     0.0065     0.871     0.311     0.290  0.0130  0.9993  0.0356
 
              Baa    -0.0012    -0.662    -0.236    -0.221  0.3617 -0.0495  0.9310
    12 H(1)   Bbb    -0.0008    -0.430    -0.153    -0.143  0.9321  0.0003 -0.3622
              Bcc     0.0020     1.092     0.389     0.364  0.0176  0.9988  0.0463
 
              Baa    -0.0049    -0.661    -0.236    -0.220  0.8959  0.1214 -0.4274
    13 C(13)  Bbb    -0.0021    -0.278    -0.099    -0.093  0.4266  0.0343  0.9038
              Bcc     0.0070     0.939     0.335     0.313 -0.1244  0.9920  0.0210
 
              Baa    -0.0020    -1.053    -0.376    -0.351  0.2332 -0.1486  0.9610
    14 H(1)   Bbb    -0.0016    -0.879    -0.314    -0.293  0.8989  0.4099 -0.1548
              Bcc     0.0036     1.932     0.689     0.644 -0.3710  0.8999  0.2292
 
              Baa    -0.0170    -2.286    -0.816    -0.762  0.4895 -0.0414  0.8710
    15 C(13)  Bbb    -0.0019    -0.249    -0.089    -0.083  0.6773  0.6471 -0.3499
              Bcc     0.0189     2.535     0.905     0.846 -0.5492  0.7613  0.3448
 
              Baa    -0.0123    -1.651    -0.589    -0.551  0.2282 -0.1979  0.9533
    16 C(13)  Bbb    -0.0001    -0.009    -0.003    -0.003  0.9649  0.1766 -0.1943
              Bcc     0.0124     1.660     0.592     0.554 -0.1299  0.9642  0.2312
 
              Baa    -0.0042    -2.258    -0.806    -0.753  0.0381 -0.3204  0.9465
    17 H(1)   Bbb    -0.0022    -1.198    -0.428    -0.400  0.7465  0.6388  0.1862
              Bcc     0.0065     3.456     1.233     1.153 -0.6643  0.6995  0.2635
 
              Baa    -0.0058    -3.116    -1.112    -1.039  0.1539 -0.6953  0.7021
    18 H(1)   Bbb    -0.0044    -2.349    -0.838    -0.783  0.8651  0.4381  0.2442
              Bcc     0.0102     5.465     1.950     1.823 -0.4774  0.5698  0.6689
 
              Baa    -0.5988    14.672     5.235     4.894  0.0162 -0.0460  0.9988
    19 Ru(99) Bbb     0.2554    -6.258    -2.233    -2.087  0.9998 -0.0062 -0.0165
              Bcc     0.3434    -8.414    -3.002    -2.807  0.0070  0.9989  0.0459
 
              Baa    -0.0144    -7.661    -2.734    -2.556  0.9626 -0.0385  0.2682
    20 H(1)   Bbb    -0.0118    -6.281    -2.241    -2.095  0.0725  0.9903 -0.1183
              Bcc     0.0261    13.942     4.975     4.651 -0.2610  0.1333  0.9561
 
              Baa    -0.0095    -1.273    -0.454    -0.425  0.2828  0.9186  0.2760
    21 C(13)  Bbb    -0.0086    -1.148    -0.410    -0.383 -0.6694 -0.0171  0.7427
              Bcc     0.0180     2.422     0.864     0.808  0.6870 -0.3948  0.6101
 
              Baa    -0.0124    -1.666    -0.595    -0.556  0.3610  0.4637  0.8091
    22 C(13)  Bbb    -0.0096    -1.291    -0.461    -0.430 -0.4380  0.8503 -0.2919
              Bcc     0.0220     2.957     1.055     0.986  0.8233  0.2490 -0.5101
 
              Baa    -0.0139    -1.869    -0.667    -0.623  0.2806 -0.5344  0.7973
    23 C(13)  Bbb    -0.0110    -1.478    -0.527    -0.493  0.4625  0.8032  0.3755
              Bcc     0.0249     3.346     1.194     1.116  0.8411 -0.2633 -0.4725
 
              Baa    -0.0088    -1.178    -0.420    -0.393 -0.1795  0.9199 -0.3486
    24 C(13)  Bbb    -0.0081    -1.089    -0.389    -0.363  0.7209 -0.1181 -0.6829
              Bcc     0.0169     2.267     0.809     0.756  0.6693  0.3739  0.6420
 
              Baa    -0.0043    -0.575    -0.205    -0.192 -0.2707 -0.6051  0.7487
    25 C(13)  Bbb    -0.0036    -0.481    -0.172    -0.161  0.8096 -0.5639 -0.1630
              Bcc     0.0079     1.056     0.377     0.352  0.5208  0.5621  0.6425
 
              Baa    -0.0036    -1.909    -0.681    -0.637 -0.2399 -0.3938  0.8874
    26 H(1)   Bbb    -0.0027    -1.416    -0.505    -0.472  0.8317 -0.5548 -0.0213
              Bcc     0.0062     3.325     1.187     1.109  0.5007  0.7329  0.4606
 
              Baa    -0.0072    -3.836    -1.369    -1.280  0.3941  0.6751 -0.6236
    27 H(1)   Bbb    -0.0053    -2.816    -1.005    -0.939  0.8577 -0.5139 -0.0143
              Bcc     0.0125     6.653     2.374     2.219  0.3301  0.5292  0.7816
 
              Baa    -0.0023    -1.236    -0.441    -0.412  0.2334  0.7302 -0.6422
    28 H(1)   Bbb    -0.0019    -1.015    -0.362    -0.338  0.8456 -0.4785 -0.2367
              Bcc     0.0042     2.250     0.803     0.751  0.4801  0.4878  0.7291
 
              Baa    -0.0042    -0.564    -0.201    -0.188 -0.6268  0.4292  0.6503
    29 C(13)  Bbb    -0.0038    -0.508    -0.181    -0.170  0.2751  0.9027 -0.3307
              Bcc     0.0080     1.073     0.383     0.358  0.7290  0.0284  0.6839
 
              Baa    -0.0022    -1.177    -0.420    -0.393  0.7557 -0.3504 -0.5533
    30 H(1)   Bbb    -0.0020    -1.061    -0.378    -0.354  0.2311  0.9332 -0.2754
              Bcc     0.0042     2.238     0.798     0.746  0.6128  0.0803  0.7862
 
              Baa    -0.0066    -3.503    -1.250    -1.169  0.7245 -0.3400 -0.5995
    31 H(1)   Bbb    -0.0047    -2.494    -0.890    -0.832  0.3411  0.9327 -0.1168
              Bcc     0.0112     5.997     2.140     2.000  0.5989 -0.1199  0.7918
 
              Baa    -0.0028    -1.507    -0.538    -0.503 -0.5016  0.2463  0.8293
    32 H(1)   Bbb    -0.0023    -1.242    -0.443    -0.414  0.2275  0.9624 -0.1483
              Bcc     0.0052     2.749     0.981     0.917  0.8347 -0.1143  0.5387
 
              Baa    -0.0038    -0.516    -0.184    -0.172 -0.3235  0.2211  0.9200
    33 C(13)  Bbb    -0.0037    -0.493    -0.176    -0.164 -0.3458  0.8774 -0.3324
              Bcc     0.0075     1.009     0.360     0.337  0.8808  0.4257  0.2074
 
              Baa    -0.0016    -0.857    -0.306    -0.286 -0.3324  0.9147 -0.2297
    34 H(1)   Bbb    -0.0013    -0.676    -0.241    -0.226 -0.5385  0.0158  0.8424
              Bcc     0.0029     1.533     0.547     0.512  0.7742  0.4037  0.4874
 
              Baa    -0.0021    -1.109    -0.396    -0.370  0.0072  0.7131 -0.7010
    35 H(1)   Bbb    -0.0017    -0.888    -0.317    -0.296 -0.2981  0.6707  0.6792
              Bcc     0.0037     1.996     0.712     0.666  0.9545  0.2040  0.2174
 
              Baa    -0.0021    -1.131    -0.403    -0.377 -0.5171  0.5322  0.6703
    36 H(1)   Bbb    -0.0018    -0.965    -0.344    -0.322  0.3104 -0.6132  0.7264
              Bcc     0.0039     2.096     0.748     0.699  0.7976  0.5837  0.1519
 
              Baa    -0.0048    -0.641    -0.229    -0.214  0.1259  0.7062  0.6967
    37 C(13)  Bbb    -0.0045    -0.598    -0.213    -0.199 -0.5370  0.6390 -0.5507
              Bcc     0.0092     1.239     0.442     0.413  0.8342  0.3048 -0.4596
 
              Baa    -0.0023    -1.227    -0.438    -0.409  0.3156 -0.6272  0.7121
    38 H(1)   Bbb    -0.0017    -0.926    -0.331    -0.309 -0.1084  0.7217  0.6836
              Bcc     0.0040     2.153     0.768     0.718  0.9427  0.2929 -0.1598
 
              Baa    -0.0019    -1.014    -0.362    -0.338  0.4412 -0.1692  0.8813
    39 H(1)   Bbb    -0.0012    -0.659    -0.235    -0.220  0.0860  0.9855  0.1461
              Bcc     0.0031     1.672     0.597     0.558  0.8933 -0.0113 -0.4494
 
              Baa    -0.0025    -1.322    -0.472    -0.441  0.2941  0.5870  0.7543
    40 H(1)   Bbb    -0.0018    -0.975    -0.348    -0.325 -0.5808  0.7365 -0.3468
              Bcc     0.0043     2.298     0.820     0.766  0.7591  0.3361 -0.5575
 
              Baa    -0.0038    -0.516    -0.184    -0.172  0.1112  0.1402  0.9839
    41 C(13)  Bbb    -0.0026    -0.355    -0.127    -0.118  0.2861  0.9436 -0.1668
              Bcc     0.0065     0.871     0.311     0.290  0.9517 -0.3000 -0.0648
 
              Baa    -0.0023    -1.215    -0.433    -0.405  0.2269  0.0630  0.9719
    42 H(1)   Bbb    -0.0018    -0.938    -0.335    -0.313  0.3520  0.9251 -0.1422
              Bcc     0.0040     2.153     0.768     0.718  0.9081 -0.3744 -0.1877
 
              Baa    -0.0024    -1.305    -0.466    -0.435 -0.0563  0.3212  0.9453
    43 H(1)   Bbb    -0.0021    -1.144    -0.408    -0.382  0.2287  0.9258 -0.3010
              Bcc     0.0046     2.449     0.874     0.817  0.9719 -0.1992  0.1256
 
              Baa    -0.0053    -2.825    -1.008    -0.942 -0.0621  0.0494  0.9968
    44 H(1)   Bbb    -0.0039    -2.058    -0.734    -0.687  0.4583  0.8886 -0.0155
              Bcc     0.0092     4.884     1.743     1.629  0.8866 -0.4559  0.0779
 
              Baa    -0.0054    -0.724    -0.259    -0.242  0.0174  0.9658 -0.2585
    45 C(13)  Bbb    -0.0043    -0.578    -0.206    -0.193  0.7047  0.1716  0.6884
              Bcc     0.0097     1.302     0.465     0.434  0.7093 -0.1942 -0.6777
 
              Baa    -0.0085    -4.559    -1.627    -1.521  0.5010 -0.4108  0.7617
    46 H(1)   Bbb    -0.0065    -3.489    -1.245    -1.164  0.5660  0.8214  0.0707
              Bcc     0.0151     8.048     2.872     2.685  0.6547 -0.3957 -0.6440
 
              Baa    -0.0049    -2.610    -0.931    -0.871 -0.4264  0.8582 -0.2857
    47 H(1)   Bbb    -0.0044    -2.345    -0.837    -0.782  0.6897  0.5128  0.5112
              Bcc     0.0093     4.955     1.768     1.653 -0.5853 -0.0209  0.8106
 
              Baa    -0.0027    -1.449    -0.517    -0.483  0.4037 -0.6165  0.6760
    48 H(1)   Bbb    -0.0022    -1.170    -0.417    -0.390  0.5694  0.7476  0.3418
              Bcc     0.0049     2.618     0.934     0.873  0.7161 -0.2469 -0.6528
 
              Baa    -0.0043    -0.583    -0.208    -0.195  0.4867  0.7093 -0.5099
    49 C(13)  Bbb    -0.0038    -0.516    -0.184    -0.172 -0.4698  0.7046  0.5318
              Bcc     0.0082     1.099     0.392     0.367  0.7365 -0.0192  0.6762
 
              Baa    -0.0023    -1.251    -0.446    -0.417  0.5329  0.7442 -0.4027
    50 H(1)   Bbb    -0.0021    -1.102    -0.393    -0.368 -0.5063  0.6618  0.5529
              Bcc     0.0044     2.353     0.840     0.785  0.6780 -0.0908  0.7295
 
              Baa    -0.0066    -3.539    -1.263    -1.180  0.5597  0.6630 -0.4973
    51 H(1)   Bbb    -0.0059    -3.140    -1.120    -1.047 -0.5551  0.7454  0.3691
              Bcc     0.0125     6.679     2.383     2.228  0.6154  0.0695  0.7852
 
              Baa    -0.0034    -1.800    -0.642    -0.600 -0.4157 -0.4093  0.8122
    52 H(1)   Bbb    -0.0028    -1.480    -0.528    -0.494 -0.3239  0.9011  0.2883
              Bcc     0.0061     3.280     1.170     1.094  0.8499  0.1432  0.5072
 
              Baa    -0.0043    -0.578    -0.206    -0.193 -0.3032 -0.2958  0.9059
    53 C(13)  Bbb    -0.0042    -0.558    -0.199    -0.186  0.3088  0.8688  0.3870
              Bcc     0.0085     1.136     0.405     0.379  0.9015 -0.3971  0.1721
 
              Baa    -0.0017    -0.918    -0.327    -0.306  0.3351  0.9162  0.2197
    54 H(1)   Bbb    -0.0013    -0.687    -0.245    -0.229 -0.5079 -0.0207  0.8612
              Bcc     0.0030     1.605     0.573     0.535  0.7936 -0.4002  0.4583
 
              Baa    -0.0021    -1.138    -0.406    -0.379 -0.0224  0.6755  0.7371
    55 H(1)   Bbb    -0.0017    -0.913    -0.326    -0.305  0.2534  0.7170 -0.6494
              Bcc     0.0038     2.051     0.732     0.684  0.9671 -0.1722  0.1872
 
              Baa    -0.0022    -1.170    -0.417    -0.390  0.5179  0.6296 -0.5792
    56 H(1)   Bbb    -0.0018    -0.968    -0.345    -0.323  0.2618  0.5280  0.8079
              Bcc     0.0040     2.138     0.763     0.713  0.8144 -0.5700  0.1086
 
              Baa    -0.0043    -0.577    -0.206    -0.192 -0.1649  0.6200  0.7671
    57 C(13)  Bbb    -0.0038    -0.505    -0.180    -0.169  0.8204  0.5179 -0.2422
              Bcc     0.0081     1.082     0.386     0.361  0.5475 -0.5894  0.5940
 
              Baa    -0.0035    -1.889    -0.674    -0.630 -0.1903  0.3634  0.9120
    58 H(1)   Bbb    -0.0028    -1.468    -0.524    -0.490  0.8337  0.5504 -0.0454
              Bcc     0.0063     3.357     1.198     1.120 -0.5185  0.7517 -0.4077
 
              Baa    -0.0067    -3.561    -1.271    -1.188 -0.5670  0.4743  0.6735
    59 H(1)   Bbb    -0.0060    -3.226    -1.151    -1.076  0.7404  0.6518  0.1643
              Bcc     0.0127     6.787     2.422     2.264  0.3611 -0.5917  0.7207
 
              Baa    -0.0023    -1.253    -0.447    -0.418  0.0030  0.7905  0.6125
    60 H(1)   Bbb    -0.0021    -1.104    -0.394    -0.368  0.8581  0.3125 -0.4075
              Bcc     0.0044     2.356     0.841     0.786  0.5135 -0.5268  0.6774
 
              Baa    -0.0049    -0.661    -0.236    -0.221  0.5881  0.4888  0.6444
    61 C(13)  Bbb    -0.0045    -0.599    -0.214    -0.200 -0.4817  0.8517 -0.2063
              Bcc     0.0094     1.261     0.450     0.420 -0.6497 -0.1891  0.7363
 
              Baa    -0.0083    -4.431    -1.581    -1.478  0.5904  0.4049  0.6982
    62 H(1)   Bbb    -0.0059    -3.139    -1.120    -1.047 -0.5519  0.8337 -0.0168
              Bcc     0.0142     7.570     2.701     2.525 -0.5889 -0.3754  0.7157
 
              Baa    -0.0046    -2.462    -0.878    -0.821  0.8585  0.1210  0.4983
    63 H(1)   Bbb    -0.0039    -2.086    -0.744    -0.696 -0.0965  0.9925 -0.0748
              Bcc     0.0085     4.548     1.623     1.517 -0.5037  0.0161  0.8638
 
              Baa    -0.0026    -1.368    -0.488    -0.456  0.5238  0.5203  0.6745
    64 H(1)   Bbb    -0.0020    -1.077    -0.384    -0.359 -0.5239  0.8211 -0.2265
              Bcc     0.0046     2.445     0.873     0.816 -0.6716 -0.2347  0.7027
 
              Baa    -0.0045    -0.600    -0.214    -0.200  0.2573 -0.5561  0.7903
    65 C(13)  Bbb    -0.0042    -0.569    -0.203    -0.190  0.4908  0.7797  0.3889
              Bcc     0.0087     1.169     0.417     0.390  0.8324 -0.2878 -0.4735
 
              Baa    -0.0022    -1.189    -0.424    -0.397  0.3275  0.6329  0.7015
    66 H(1)   Bbb    -0.0017    -0.919    -0.328    -0.306  0.0727  0.7234 -0.6866
              Bcc     0.0040     2.108     0.752     0.703  0.9420 -0.2759 -0.1909
 
              Baa    -0.0018    -0.977    -0.349    -0.326  0.4746  0.1408  0.8689
    67 H(1)   Bbb    -0.0012    -0.632    -0.226    -0.211 -0.0816  0.9899 -0.1159
              Bcc     0.0030     1.609     0.574     0.537  0.8764  0.0159 -0.4813
 
              Baa    -0.0024    -1.291    -0.460    -0.430  0.3777 -0.5163  0.7686
    68 H(1)   Bbb    -0.0018    -0.935    -0.334    -0.312  0.5540  0.7911  0.2592
              Bcc     0.0042     2.226     0.794     0.742  0.7419 -0.3279 -0.5848
 
              Baa    -0.0039    -0.524    -0.187    -0.175  0.1562 -0.0893  0.9837
    69 C(13)  Bbb    -0.0027    -0.357    -0.128    -0.119 -0.2788  0.9514  0.1306
              Bcc     0.0066     0.881     0.314     0.294  0.9475  0.2947 -0.1238
 
              Baa    -0.0023    -1.207    -0.431    -0.403  0.2918 -0.0846  0.9527
    70 H(1)   Bbb    -0.0017    -0.917    -0.327    -0.306 -0.3326  0.9250  0.1840
              Bcc     0.0040     2.124     0.758     0.708  0.8968  0.3705 -0.2418
 
              Baa    -0.0025    -1.348    -0.481    -0.450  0.0026 -0.3674  0.9301
    71 H(1)   Bbb    -0.0022    -1.154    -0.412    -0.385 -0.2187  0.9073  0.3590
              Bcc     0.0047     2.502     0.893     0.835  0.9758  0.2044  0.0779
 
              Baa    -0.0055    -2.916    -1.041    -0.973  0.0453 -0.0964  0.9943
    72 H(1)   Bbb    -0.0040    -2.120    -0.756    -0.707 -0.4609  0.8810  0.1065
              Bcc     0.0094     5.036     1.797     1.680  0.8863  0.4631  0.0045
 
              Baa    -0.4379    31.687    11.307    10.570  0.0626 -0.1032  0.9927
    73 O(17)  Bbb     0.1554   -11.247    -4.013    -3.752 -0.0841  0.9905  0.1083
              Bcc     0.2825   -20.440    -7.293    -6.818  0.9945  0.0903 -0.0534
 
              Baa    -0.0538    -7.226    -2.578    -2.410  0.1912  0.9811  0.0288
    74 C(13)  Bbb    -0.0381    -5.117    -1.826    -1.707  0.9807 -0.1896 -0.0485
              Bcc     0.0920    12.343     4.404     4.117  0.0421 -0.0375  0.9984
 
              Baa    -0.0331   -17.650    -6.298    -5.887  0.9974  0.0245 -0.0679
    75 H(1)   Bbb    -0.0115    -6.138    -2.190    -2.047 -0.0512  0.9028 -0.4269
              Bcc     0.0446    23.788     8.488     7.935  0.0509  0.4293  0.9017
 
              Baa    -0.0625     4.519     1.612     1.507  0.0543  0.9973  0.0501
    76 O(17)  Bbb    -0.0351     2.536     0.905     0.846  0.9969 -0.0512 -0.0596
              Bcc     0.0975    -7.055    -2.517    -2.353  0.0568 -0.0532  0.9970
 

 ---------------------------------------------------------------------------------

 Unable to Open any file for archive entry.
 1\1\GINC-NODE060\SP\UB3LYP\def2SVP\C24H45N1O3P2Ru1(3)\DO57CIG\16-Jan-2
 025\0\\# ub3lyp scrf=(smd,solvent=water) def2svp empiricaldispersion=g
 d3bj int=ultrafine scf=xqc guess=read\\A_Ru_Cis_straight_CO_DFT_B3LYP_
 def2SVP_smd_water_T_3MC_freezedScan_2_2\\0,3\P,0,2.412868,-0.094449,-0
 .144265\N,0,-0.014745,1.67011,-0.067832\C,0,2.18893,1.497128,-1.074514
 \H,0,3.113566,2.087781,-1.109246\H,0,1.953738,1.189827,-2.107226\O,0,-
 0.142639,-1.080228,-2.140182\P,0,-2.428322,-0.088089,0.052854\C,0,1.05
 4182,2.32638,-0.534279\C,0,1.114542,3.72489,-0.504876\H,0,1.992958,4.2
 41783,-0.894696\C,0,0.04121,4.42916,0.042209\H,0,0.062461,5.520526,0.0
 84666\C,0,-1.057448,3.726797,0.538424\H,0,-1.91242,4.245906,0.974803\C
 ,0,-1.05312,2.328339,0.459942\C,0,-2.212963,1.510172,0.968938\H,0,-3.1
 32233,2.11112,0.970919\H,0,-2.011577,1.219289,2.014087\Ru,0,-0.0121622
 7,-1.01070848,-0.05203733\H,0,0.692632,-1.43269,-2.464648\C,0,-3.25186
 7,0.414832,-1.597843\C,0,-3.689242,-1.026507,1.141738\C,0,3.672968,-1.
 033084,-1.235163\C,0,3.23895,0.41126,1.50261\C,0,2.316777,1.435151,2.1
 94192\H,0,2.315062,2.400477,1.671025\H,0,1.27969,1.092861,2.284222\H,0
 ,2.702246,1.612888,3.211336\C,0,3.382488,-0.831614,2.403768\H,0,3.5211
 61,-0.503169,3.446828\H,0,2.501202,-1.483887,2.374833\H,0,4.256058,-1.
 434578,2.131644\C,0,4.614888,1.069055,1.328299\H,0,4.960743,1.42544,2.
 3136\H,0,5.368667,0.364833,0.953429\H,0,4.578807,1.940314,0.657466\C,0
 ,4.74511,-0.114754,-1.842777\H,0,5.322707,0.432533,-1.089586\H,0,5.451
 726,-0.73695,-2.41789\H,0,4.308508,0.612477,-2.542041\C,0,4.330706,-2.
 153531,-0.417947\H,0,4.873638,-2.822089,-1.106183\H,0,5.057683,-1.7668
 37,0.307096\H,0,3.584063,-2.758676,0.11881\C,0,2.906494,-1.687136,-2.3
 94227\H,0,2.185308,-2.432688,-2.030052\H,0,2.39151,-0.942841,-3.019376
 \H,0,3.627573,-2.211705,-3.042014\C,0,-3.305865,-0.812024,-2.526736\H,
 0,-3.622781,-0.480335,-3.530174\H,0,-2.318534,-1.282973,-2.614999\H,0,
 -4.029577,-1.561929,-2.187181\C,0,-4.659288,1.003095,-1.433168\H,0,-5.
 000366,1.37308,-2.415293\H,0,-5.388741,0.25561,-1.095253\H,0,-4.677611
 ,1.854828,-0.736724\C,0,-2.365234,1.487083,-2.258986\H,0,-2.389092,2.4
 38805,-1.710576\H,0,-1.322309,1.164388,-2.356179\H,0,-2.758542,1.68174
 4,-3.270545\C,0,-2.923237,-1.658418,2.312524\H,0,-2.185951,-2.395359,1
 .966545\H,0,-2.408753,-0.907964,2.926963\H,0,-3.645996,-2.180454,2.961
 255\C,0,-4.776892,-0.114107,1.731119\H,0,-5.362472,0.410039,0.968029\H
 ,0,-5.474454,-0.736122,2.317381\H,0,-4.352501,0.632985,2.417059\C,0,-4
 .327081,-2.163039,0.330299\H,0,-4.882085,-2.821634,1.018632\H,0,-5.039
 442,-1.794447,-0.418833\H,0,-3.566315,-2.775045,-0.178514\O,0,0.019906
 96,-3.19925594,-0.27391921\C,0,0.05929373,-1.04636848,1.76684967\H,0,-
 0.04345604,-3.20134394,-1.24472721\O,0,0.12707673,-1.08763748,2.936182
 67\\Version=ES64L-G16RevC.02\State=3-A\HF=-1998.9472433\S2=2.021237\S2
 -1=0.\S2A=2.00025\RMSD=2.397e-09\Dipole=0.8596839,5.3142688,0.0331826\
 Quadrupole=27.397331,-11.7096347,-15.6876963,-1.559728,-8.874784,3.394
 5115\PG=C01 [X(C24H45N1O3P2Ru1)]\\@
 The archive entry for this job was punched.


    WHAT WE HAVE LEARNED
 IS LIKE A HANDFUL OF EARTH;
  WHAT WE HAVE YET TO LEARN
   IS LIKE THE WHOLE WORLD.

         -- AVVAYIAR
 Job cpu time:       0 days  2 hours 12 minutes 37.6 seconds.
 Elapsed time:       0 days  0 hours  6 minutes  3.6 seconds.
 File lengths (MBytes):  RWF=    821 Int=      0 D2E=      0 Chk=     67 Scr=      1
 Normal termination of Gaussian 16 at Thu Jan 16 18:20:11 2025.
