 Entering Gaussian System, Link 0=g16
 Input=A_Ru_Cis_straight_CO_DFT_B3LYP_def2SVP_smd_water_T_3MC_freezedScan_2_6.gjf
 Output=A_Ru_Cis_straight_CO_DFT_B3LYP_def2SVP_smd_water_T_3MC_freezedScan_2_6.log
 Initial command:
 /cluster/apps/gaussian/g16_c02/g16/l1.exe "/beegfs/do57cig/gauss2178643/Gau-37164.inp" -scrdir="/beegfs/do57cig/gauss2178643/"
 Default CPUs for threads: 0-23
 Default is to use a total of  24 processors:
                               24 via shared-memory
                                1 via Linda
 Entering Link 1 = /cluster/apps/gaussian/g16_c02/g16/l1.exe PID=     37165.
  
 Copyright (c) 1988-2021, Gaussian, Inc.  All Rights Reserved.
  
 This is part of the Gaussian(R) 16 program.  It is based on
 the Gaussian(R) 09 system (copyright 2009, Gaussian, Inc.),
 the Gaussian(R) 03 system (copyright 2003, Gaussian, Inc.),
 the Gaussian(R) 98 system (copyright 1998, Gaussian, Inc.),
 the Gaussian(R) 94 system (copyright 1995, Gaussian, Inc.),
 the Gaussian 92(TM) system (copyright 1992, Gaussian, Inc.),
 the Gaussian 90(TM) system (copyright 1990, Gaussian, Inc.),
 the Gaussian 88(TM) system (copyright 1988, Gaussian, Inc.),
 the Gaussian 86(TM) system (copyright 1986, Carnegie Mellon
 University), and the Gaussian 82(TM) system (copyright 1983,
 Carnegie Mellon University). Gaussian is a federally registered
 trademark of Gaussian, Inc.
  
 This software contains proprietary and confidential information,
 including trade secrets, belonging to Gaussian, Inc.
  
 This software is provided under written license and may be
 used, copied, transmitted, or stored only in accord with that
 written license.
  
 The following legend is applicable only to US Government
 contracts under FAR:
  
                    RESTRICTED RIGHTS LEGEND
  
 Use, reproduction and disclosure by the US Government is
 subject to restrictions as set forth in subparagraphs (a)
 and (c) of the Commercial Computer Software - Restricted
 Rights clause in FAR 52.227-19.
  
 Gaussian, Inc.
 340 Quinnipiac St., Bldg. 40, Wallingford CT 06492
  
  
 ---------------------------------------------------------------
 Warning -- This program may not be used in any manner that
 competes with the business of Gaussian, Inc. or will provide
 assistance to any competitor of Gaussian, Inc.  The licensee
 of this program is prohibited from giving any competitor of
 Gaussian, Inc. access to this program.  By using this program,
 the user acknowledges that Gaussian, Inc. is engaged in the
 business of creating and licensing software in the field of
 computational chemistry and represents and warrants to the
 licensee that it is not a competitor of Gaussian, Inc. and that
 it will not use this program in any manner prohibited above.
 ---------------------------------------------------------------
  

 Cite this work as:
 Gaussian 16, Revision C.02,
 M. J. Frisch, G. W. Trucks, H. B. Schlegel, G. E. Scuseria, 
 M. A. Robb, J. R. Cheeseman, G. Scalmani, V. Barone, 
 G. A. Petersson, H. Nakatsuji, X. Li, M. Caricato, A. V. Marenich, 
 J. Bloino, B. G. Janesko, R. Gomperts, B. Mennucci, H. P. Hratchian, 
 J. V. Ortiz, A. F. Izmaylov, J. L. Sonnenberg, D. Williams-Young, 
 F. Ding, F. Lipparini, F. Egidi, J. Goings, B. Peng, A. Petrone, 
 T. Henderson, D. Ranasinghe, V. G. Zakrzewski, J. Gao, N. Rega, 
 G. Zheng, W. Liang, M. Hada, M. Ehara, K. Toyota, R. Fukuda, 
 J. Hasegawa, M. Ishida, T. Nakajima, Y. Honda, O. Kitao, H. Nakai, 
 T. Vreven, K. Throssell, J. A. Montgomery, Jr., J. E. Peralta, 
 F. Ogliaro, M. J. Bearpark, J. J. Heyd, E. N. Brothers, K. N. Kudin, 
 V. N. Staroverov, T. A. Keith, R. Kobayashi, J. Normand, 
 K. Raghavachari, A. P. Rendell, J. C. Burant, S. S. Iyengar, 
 J. Tomasi, M. Cossi, J. M. Millam, M. Klene, C. Adamo, R. Cammi, 
 J. W. Ochterski, R. L. Martin, K. Morokuma, O. Farkas, 
 J. B. Foresman, and D. J. Fox, Gaussian, Inc., Wallingford CT, 2019.
 
 ******************************************
 Gaussian 16:  ES64L-G16RevC.02  7-Dec-2021
                16-Jan-2025 
 ******************************************
 %chk=A_Ru_Cis_straight_CO_DFT_B3LYP_def2SVP_smd_water_T_3MC_freezedScan_2_6.chk
 %Oldchk=A_Ru_Cis_straight_CO_DFT_B3LYP_def2SVP_smd_water_T_3MC_tweaked_geom.chk
 SetSPE:  set environment variable "OMP_PROC_BIND" = "true"
 SetSPE:  set environment variable "OMP_PLACES" = "{0},{1},{2},{3},{4},{5},{6},{7},{8},{9},{10},{11},{12},{13},{14},{15},{16},{17},{18},{19},{20},{21},{22},{23}"
 Copying data from "A_Ru_Cis_straight_CO_DFT_B3LYP_def2SVP_smd_water_T_3MC_tweaked_geom.chk" to current chk file "A_Ru_Cis_straight_CO_DFT_B3LYP_def2SVP_smd_water_T_3MC_freezedScan_2_6.chk"
 IOpt=  2 FromEx=T IUOpen= 4 IOptOp= 5 NList=   0 IFRang= 0 IUIn= 4 IUOut= 2.
 ----------------------------------------------------------------------
 # ub3lyp scrf=(smd,solvent=water) def2svp empiricaldispersion=gd3bj in
 t=ultrafine scf=xqc guess=read
 ----------------------------------------------------------------------
 1/38=1,172=1/1;
 2/12=2,17=6,18=5,40=1/2;
 3/5=43,7=101,11=2,25=1,30=1,70=32201,72=1,74=-5,75=-5,116=2,124=41/1,2,3;
 4/5=1/1;
 5/5=2,8=3,13=1,38=6,53=1/2,8;
 6/7=2,8=2,9=2,10=2,28=1/1;
 99/5=1,9=1/99;
 -----------------------------------------------------------------
 A_Ru_Cis_DFT_B3LYP_def2svp_smd_water_T_Opt_3MLCT_from_3MLCT_trans
 -----------------------------------------------------------------
 Symbolic Z-matrix:
 Charge =  0 Multiplicity = 3
 P                     2.41287  -0.09445  -0.14427 
 N                    -0.01475   1.67011  -0.06783 
 C                     2.18893   1.49713  -1.07451 
 H                     3.11357   2.08778  -1.10925 
 H                     1.95374   1.18983  -2.10723 
 O                    -0.14264  -1.08023  -2.14018 
 P                    -2.42832  -0.08809   0.05285 
 C                     1.05418   2.32638  -0.53428 
 C                     1.11454   3.72489  -0.50488 
 H                     1.99296   4.24178  -0.8947 
 C                     0.04121   4.42916   0.04221 
 H                     0.06246   5.52053   0.08467 
 C                    -1.05745   3.7268    0.53842 
 H                    -1.91242   4.24591   0.9748 
 C                    -1.05312   2.32834   0.45994 
 C                    -2.21296   1.51017   0.96894 
 H                    -3.13223   2.11112   0.97092 
 H                    -2.01158   1.21929   2.01409 
 Ru                   -0.01216  -1.01071  -0.05204 
 H                     0.69263  -1.43269  -2.46465 
 C                    -3.25187   0.41483  -1.59784 
 C                    -3.68924  -1.02651   1.14174 
 C                     3.67297  -1.03308  -1.23516 
 C                     3.23895   0.41126   1.50261 
 C                     2.31678   1.43515   2.19419 
 H                     2.31506   2.40048   1.67103 
 H                     1.27969   1.09286   2.28422 
 H                     2.70225   1.61289   3.21134 
 C                     3.38249  -0.83161   2.40377 
 H                     3.52116  -0.50317   3.44683 
 H                     2.5012   -1.48389   2.37483 
 H                     4.25606  -1.43458   2.13164 
 C                     4.61489   1.06906   1.3283 
 H                     4.96074   1.42544   2.3136 
 H                     5.36867   0.36483   0.95343 
 H                     4.57881   1.94031   0.65747 
 C                     4.74511  -0.11475  -1.84278 
 H                     5.32271   0.43253  -1.08959 
 H                     5.45173  -0.73695  -2.41789 
 H                     4.30851   0.61248  -2.54204 
 C                     4.33071  -2.15353  -0.41795 
 H                     4.87364  -2.82209  -1.10618 
 H                     5.05768  -1.76684   0.3071 
 H                     3.58406  -2.75868   0.11881 
 C                     2.90649  -1.68714  -2.39423 
 H                     2.18531  -2.43269  -2.03005 
 H                     2.39151  -0.94284  -3.01938 
 H                     3.62757  -2.21171  -3.04201 
 C                    -3.30587  -0.81202  -2.52674 
 H                    -3.62278  -0.48034  -3.53017 
 H                    -2.31853  -1.28297  -2.615 
 H                    -4.02958  -1.56193  -2.18718 
 C                    -4.65929   1.0031   -1.43317 
 H                    -5.00037   1.37308  -2.41529 
 H                    -5.38874   0.25561  -1.09525 
 H                    -4.67761   1.85483  -0.73672 
 C                    -2.36523   1.48708  -2.25899 
 H                    -2.38909   2.43881  -1.71058 
 H                    -1.32231   1.16439  -2.35618 
 H                    -2.75854   1.68174  -3.27055 
 C                    -2.92324  -1.65842   2.31252 
 H                    -2.18595  -2.39536   1.96655 
 H                    -2.40875  -0.90796   2.92696 
 H                    -3.646    -2.18045   2.96126 
 C                    -4.77689  -0.11411   1.73112 
 H                    -5.36247   0.41004   0.96803 
 H                    -5.47445  -0.73612   2.31738 
 H                    -4.3525    0.63299   2.41706 
 C                    -4.32708  -2.16304   0.3303 
 H                    -4.88209  -2.82163   1.01863 
 H                    -5.03944  -1.79445  -0.41883 
 H                    -3.56632  -2.77505  -0.17851 
 O                     0.02574  -3.59717  -0.31426 
 C                     0.05929  -1.04637   1.76685 
 H                    -0.03763  -3.59926  -1.28507 
 O                     0.12708  -1.08764   2.93618 
 
 Stoichiometry    C24H45NO3P2Ru(3)
 Framework group  C1[X(C24H45NO3P2Ru)]
 Deg. of freedom   222
 Full point group                 C1      NOp   1
 Largest Abelian subgroup         C1      NOp   1
 Largest concise Abelian subgroup C1      NOp   1
                         Standard orientation:                         
 ---------------------------------------------------------------------
 Center     Atomic      Atomic             Coordinates (Angstroms)
 Number     Number       Type             X           Y           Z
 ---------------------------------------------------------------------
      1         15           0        2.412686   -0.081995   -0.141758
      2          7           0       -0.015302    1.682893   -0.088284
      3          6           0        2.188433    1.497327   -1.092590
      4          1           0        3.112945    2.087675   -1.134966
      5          1           0        1.953331    1.176598   -2.121232
      6          8           0       -0.142565   -1.094137   -2.124766
      7         15           0       -2.428509   -0.074103    0.055161
      8          6           0        1.053497    2.333280   -0.563187
      9          6           0        1.113560    3.732067   -0.551937
     10          1           0        1.991876    4.244043   -0.948414
     11          6           0        0.040066    4.443151   -0.014061
     12          1           0        0.061085    5.534980    0.014228
     13          6           0       -1.058455    3.747054    0.491205
     14          1           0       -1.913547    4.271602    0.920792
     15          6           0       -1.053829    2.347696    0.430881
     16          6           0       -2.213511    1.535959    0.950429
     17          1           0       -3.132908    2.136687    0.944590
     18          1           0       -2.012088    1.258708    1.999269
     19         44           0       -0.012152   -0.997494   -0.037696
     20          1           0        0.692789   -1.450604   -2.444612
     21          6           0       -3.252122    0.407176   -1.601942
     22          6           0       -3.689256   -0.998577    1.156107
     23          6           0        3.673011   -1.034442   -1.220355
     24          6           0        3.238622    0.445222    1.498432
     25          6           0        2.316216    1.477807    2.176648
     26          1           0        2.314309    2.436261    1.640996
     27          1           0        1.279200    1.136494    2.271091
     28          1           0        2.701624    1.668812    3.191407
     29          6           0        3.382402   -0.785821    2.415649
     30          1           0        3.520981   -0.443837    3.454361
     31          1           0        2.501255   -1.438602    2.395163
     32          1           0        4.256106   -1.392081    2.151392
     33          6           0        4.614425    1.100990    1.315627
     34          1           0        4.960181    1.470207    2.296227
     35          1           0        5.368362    0.392122    0.949945
     36          1           0        4.578176    1.963462    0.633542
     37          6           0        4.744973   -0.123849   -1.839814
     38          1           0        5.322436    0.433290   -1.093778
     39          1           0        5.451734   -0.753307   -2.406789
     40          1           0        4.308233    0.594153   -2.548467
     41          6           0        4.330967   -2.144049   -0.388652
     42          1           0        4.874057   -2.821368   -1.068141
     43          1           0        5.057845   -1.747823    0.331326
     44          1           0        3.584439   -2.742335    0.155899
     45          6           0        2.906703   -1.703645   -2.370848
     46          1           0        2.185666   -2.444561   -1.997043
     47          1           0        2.391576   -0.967636   -3.005616
     48          1           0        3.627908   -2.236425   -3.011757
     49          6           0       -3.305838   -0.831644   -2.514834
     50          1           0       -3.622801   -0.513074   -3.522499
     51          1           0       -2.318405   -1.303489   -2.596957
     52          1           0       -4.029399   -1.577232   -2.165590
     53          6           0       -4.659671    0.997229   -1.444945
     54          1           0       -5.000804    1.354363   -2.431796
     55          1           0       -5.388974    0.254038   -1.097372
     56          1           0       -4.678191    1.857925   -0.759615
     57          6           0       -2.365700    1.470944   -2.276927
     58          1           0       -2.389773    2.429699   -1.740916
     59          1           0       -1.322705    1.147236   -2.369902
     60          1           0       -2.759026    1.652376   -3.290936
     61          6           0       -2.923145   -1.615077    2.335012
     62          1           0       -2.185695   -2.356290    1.998642
     63          1           0       -2.408835   -0.856602    2.939670
     64          1           0       -3.645809   -2.128802    2.990448
     65          6           0       -4.777114   -0.078835    1.733573
     66          1           0       -5.362786    0.435239    0.963732
     67          1           0       -5.474558   -0.693336    2.327844
     68          1           0       -4.352897    0.677187    2.409768
     69          6           0       -4.326836   -2.145680    0.359474
     70          1           0       -4.881716   -2.795403    1.056285
     71          1           0       -5.039257   -1.786993   -0.394394
     72          1           0       -3.565928   -2.764077   -0.141337
     73          8           0        0.026302   -3.587137   -0.266328
     74          6           0        0.059269   -1.009529    1.781502
     75          1           0       -0.037038   -3.601838   -1.237028
     76          8           0        0.127033   -1.035603    2.951273
 ---------------------------------------------------------------------
 Rotational constants (GHZ):           0.1838685           0.1023052           0.0919421
 Standard basis: def2SVP (5D, 7F)
 There are   719 symmetry adapted cartesian basis functions of A   symmetry.
 There are   684 symmetry adapted basis functions of A   symmetry.
   684 basis functions,  1154 primitive gaussians,   719 cartesian basis functions
   134 alpha electrons      132 beta electrons
       nuclear repulsion energy      4438.8047732125 Hartrees.
 NAtoms=   76 NActive=   76 NUniq=   76 SFac= 1.00D+00 NAtFMM=   60 NAOKFM=T Big=T
 Integral buffers will be    131072 words long.
 Raffenetti 2 integral format.
 Two-electron integral symmetry is turned on.
 Nuclear repulsion after empirical dispersion term =     4438.5822549921 Hartrees.
 ------------------------------------------------------------------------------
 Polarizable Continuum Model (PCM)
 =================================
 Model                : PCM.
 Atomic radii         : SMD-Coulomb.
 Polarization charges : Total charges.
 Charge compensation  : None.
 Solution method      : On-the-fly selection.
 Cavity type          : VdW (van der Waals Surface) (Alpha=1.000).
 Cavity algorithm     : GePol (No added spheres)
                        Default sphere list used, NSphG=   76.
                        Lebedev-Laikov grids with approx.  5.0 points / Ang**2.
                        Smoothing algorithm: York/Karplus (Gamma=1.0000).
                        Polarization charges: spherical gaussians, with
                                              point-specific exponents (IZeta= 3).
                        Self-potential: point-specific (ISelfS= 7).
                        Self-field    : sphere-specific E.n sum rule (ISelfD= 2).
 Solvent              : Water, Eps=  78.355300 Eps(inf)=   1.777849
 ------------------------------------------------------------------------------
 ------------------------------------------------------------------------------
 Atomic radii for non-electrostatic terms: SMD-CDS.
 ------------------------------------------------------------------------------
 Nuclear repulsion after PCM non-electrostatic terms =     4438.6013417324 Hartrees.
 One-electron integrals computed using PRISM.
   1 Symmetry operations used in ECPInt.
 ECPInt:  NShTT=   54615 NPrTT=  190596 LenC2=   47817 LenP2D=  112700.
 LDataN:  DoStor=T MaxTD1= 7 Len=  274
 NBasis=   684 RedAO= T EigKep=  4.90D-04  NBF=   684
 NBsUse=   684 1.00D-06 EigRej= -1.00D+00 NBFU=   684
 Defaulting to unpruned grid for atomic number  44.
 Initial guess from the checkpoint file:  "A_Ru_Cis_straight_CO_DFT_B3LYP_def2SVP_smd_water_T_3MC_freezedScan_2_6.chk"
 B after Tr=    -0.000000    0.000000    0.000000
         Rot=    0.999978    0.006680    0.000015   -0.000131 Ang=   0.77 deg.
 Initial guess <Sx>= 0.0000 <Sy>= 0.0000 <Sz>= 1.0000 <S**2>= 2.0205 S= 1.0068
 Requested convergence on RMS density matrix=1.00D-08 within  32 cycles.
 Requested convergence on MAX density matrix=1.00D-06.
 Requested convergence on             energy=1.00D-06.
 No special actions if energy rises.
 Defaulting to unpruned grid for atomic number  44.
 Defaulting to unpruned grid for atomic number  44.
 Defaulting to unpruned grid for atomic number  44.
 Defaulting to unpruned grid for atomic number  44.
 Defaulting to unpruned grid for atomic number  44.
 Defaulting to unpruned grid for atomic number  44.
 Defaulting to unpruned grid for atomic number  44.
 Defaulting to unpruned grid for atomic number  44.
 Defaulting to unpruned grid for atomic number  44.
 Defaulting to unpruned grid for atomic number  44.
 Defaulting to unpruned grid for atomic number  44.
 Defaulting to unpruned grid for atomic number  44.
 Defaulting to unpruned grid for atomic number  44.
 Defaulting to unpruned grid for atomic number  44.
 Defaulting to unpruned grid for atomic number  44.
 Defaulting to unpruned grid for atomic number  44.
 Defaulting to unpruned grid for atomic number  44.
 Defaulting to unpruned grid for atomic number  44.
 Defaulting to unpruned grid for atomic number  44.
 Defaulting to unpruned grid for atomic number  44.
 Defaulting to unpruned grid for atomic number  44.
 Defaulting to unpruned grid for atomic number  44.
 Defaulting to unpruned grid for atomic number  44.
 Defaulting to unpruned grid for atomic number  44.
 Inv3:  Mode=1 IEnd=    67830075.
 Iteration    1 A*A^-1 deviation from unit magnitude is 3.33D-15 for   1822.
 Iteration    1 A*A^-1 deviation from orthogonality  is 2.66D-15 for   3623   2160.
 Iteration    1 A^-1*A deviation from unit magnitude is 3.22D-15 for   2007.
 Iteration    1 A^-1*A deviation from orthogonality  is 2.59D-15 for   4627   4580.
 Restarting incremental Fock formation.
 Error on total polarization charges =  0.07735
 SCF Done:  E(UB3LYP) =  -1998.92944512     A.U. after   21 cycles
            NFock= 21  Conv=0.11D-08     -V/T= 2.0404
 <Sx>= 0.0000 <Sy>= 0.0000 <Sz>= 1.0000 <S**2>= 2.0228 S= 1.0076
 <L.S>=  0.00000000000    
 SMD-CDS (non-electrostatic) energy       (kcal/mol) =      11.98
 (included in total energy above)
 Annihilation of the first spin contaminant:
 S**2 before annihilation     2.0228,   after     2.0003
 QCSCF skips out because SCF is already converged.

 **********************************************************************

            Population analysis using the SCF Density.

 **********************************************************************

 Orbital symmetries:
 Alpha Orbitals:
       Occupied  (A) (A) (A) (A) (A) (A) (A) (A) (A) (A) (A) (A)
                 (A) (A) (A) (A) (A) (A) (A) (A) (A) (A) (A) (A)
                 (A) (A) (A) (A) (A) (A) (A) (A) (A) (A) (A) (A)
                 (A) (A) (A) (A) (A) (A) (A) (A) (A) (A) (A) (A)
                 (A) (A) (A) (A) (A) (A) (A) (A) (A) (A) (A) (A)
                 (A) (A) (A) (A) (A) (A) (A) (A) (A) (A) (A) (A)
                 (A) (A) (A) (A) (A) (A) (A) (A) (A) (A) (A) (A)
                 (A) (A) (A) (A) (A) (A) (A) (A) (A) (A) (A) (A)
                 (A) (A) (A) (A) (A) (A) (A) (A) (A) (A) (A) (A)
                 (A) (A) (A) (A) (A) (A) (A) (A) (A) (A) (A) (A)
                 (A) (A) (A) (A) (A) (A) (A) (A) (A) (A) (A) (A)
                 (A) (A)
       Virtual   (A) (A) (A) (A) (A) (A) (A) (A) (A) (A) (A) (A)
                 (A) (A) (A) (A) (A) (A) (A) (A) (A) (A) (A) (A)
                 (A) (A) (A) (A) (A) (A) (A) (A) (A) (A) (A) (A)
                 (A) (A) (A) (A) (A) (A) (A) (A) (A) (A) (A) (A)
                 (A) (A) (A) (A) (A) (A) (A) (A) (A) (A) (A) (A)
                 (A) (A) (A) (A) (A) (A) (A) (A) (A) (A) (A) (A)
                 (A) (A) (A) (A) (A) (A) (A) (A) (A) (A) (A) (A)
                 (A) (A) (A) (A) (A) (A) (A) (A) (A) (A) (A) (A)
                 (A) (A) (A) (A) (A) (A) (A) (A) (A) (A) (A) (A)
                 (A) (A) (A) (A) (A) (A) (A) (A) (A) (A) (A) (A)
                 (A) (A) (A) (A) (A) (A) (A) (A) (A) (A) (A) (A)
                 (A) (A) (A) (A) (A) (A) (A) (A) (A) (A) (A) (A)
                 (A) (A) (A) (A) (A) (A) (A) (A) (A) (A) (A) (A)
                 (A) (A) (A) (A) (A) (A) (A) (A) (A) (A) (A) (A)
                 (A) (A) (A) (A) (A) (A) (A) (A) (A) (A) (A) (A)
                 (A) (A) (A) (A) (A) (A) (A) (A) (A) (A) (A) (A)
                 (A) (A) (A) (A) (A) (A) (A) (A) (A) (A) (A) (A)
                 (A) (A) (A) (A) (A) (A) (A) (A) (A) (A) (A) (A)
                 (A) (A) (A) (A) (A) (A) (A) (A) (A) (A) (A) (A)
                 (A) (A) (A) (A) (A) (A) (A) (A) (A) (A) (A) (A)
                 (A) (A) (A) (A) (A) (A) (A) (A) (A) (A) (A) (A)
                 (A) (A) (A) (A) (A) (A) (A) (A) (A) (A) (A) (A)
                 (A) (A) (A) (A) (A) (A) (A) (A) (A) (A) (A) (A)
                 (A) (A) (A) (A) (A) (A) (A) (A) (A) (A) (A) (A)
                 (A) (A) (A) (A) (A) (A) (A) (A) (A) (A) (A) (A)
                 (A) (A) (A) (A) (A) (A) (A) (A) (A) (A) (A) (A)
                 (A) (A) (A) (A) (A) (A) (A) (A) (A) (A) (A) (A)
                 (A) (A) (A) (A) (A) (A) (A) (A) (A) (A) (A) (A)
                 (A) (A) (A) (A) (A) (A) (A) (A) (A) (A) (A) (A)
                 (A) (A) (A) (A) (A) (A) (A) (A) (A) (A) (A) (A)
                 (A) (A) (A) (A) (A) (A) (A) (A) (A) (A) (A) (A)
                 (A) (A) (A) (A) (A) (A) (A) (A) (A) (A) (A) (A)
                 (A) (A) (A) (A) (A) (A) (A) (A) (A) (A) (A) (A)
                 (A) (A) (A) (A) (A) (A) (A) (A) (A) (A) (A) (A)
                 (A) (A) (A) (A) (A) (A) (A) (A) (A) (A) (A) (A)
                 (A) (A) (A) (A) (A) (A) (A) (A) (A) (A) (A) (A)
                 (A) (A) (A) (A) (A) (A) (A) (A) (A) (A) (A) (A)
                 (A) (A) (A) (A) (A) (A) (A) (A) (A) (A) (A) (A)
                 (A) (A) (A) (A) (A) (A) (A) (A) (A) (A) (A) (A)
                 (A) (A) (A) (A) (A) (A) (A) (A) (A) (A) (A) (A)
                 (A) (A) (A) (A) (A) (A) (A) (A) (A) (A) (A) (A)
                 (A) (A) (A) (A) (A) (A) (A) (A) (A) (A) (A) (A)
                 (A) (A) (A) (A) (A) (A) (A) (A) (A) (A) (A) (A)
                 (A) (A) (A) (A) (A) (A) (A) (A) (A) (A) (A) (A)
                 (A) (A) (A) (A) (A) (A) (A) (A) (A) (A) (A) (A)
                 (A) (A) (A) (A) (A) (A) (A) (A) (A) (A)
 Beta  Orbitals:
       Occupied  (A) (A) (A) (A) (A) (A) (A) (A) (A) (A) (A) (A)
                 (A) (A) (A) (A) (A) (A) (A) (A) (A) (A) (A) (A)
                 (A) (A) (A) (A) (A) (A) (A) (A) (A) (A) (A) (A)
                 (A) (A) (A) (A) (A) (A) (A) (A) (A) (A) (A) (A)
                 (A) (A) (A) (A) (A) (A) (A) (A) (A) (A) (A) (A)
                 (A) (A) (A) (A) (A) (A) (A) (A) (A) (A) (A) (A)
                 (A) (A) (A) (A) (A) (A) (A) (A) (A) (A) (A) (A)
                 (A) (A) (A) (A) (A) (A) (A) (A) (A) (A) (A) (A)
                 (A) (A) (A) (A) (A) (A) (A) (A) (A) (A) (A) (A)
                 (A) (A) (A) (A) (A) (A) (A) (A) (A) (A) (A) (A)
                 (A) (A) (A) (A) (A) (A) (A) (A) (A) (A) (A) (A)
       Virtual   (A) (A) (A) (A) (A) (A) (A) (A) (A) (A) (A) (A)
                 (A) (A) (A) (A) (A) (A) (A) (A) (A) (A) (A) (A)
                 (A) (A) (A) (A) (A) (A) (A) (A) (A) (A) (A) (A)
                 (A) (A) (A) (A) (A) (A) (A) (A) (A) (A) (A) (A)
                 (A) (A) (A) (A) (A) (A) (A) (A) (A) (A) (A) (A)
                 (A) (A) (A) (A) (A) (A) (A) (A) (A) (A) (A) (A)
                 (A) (A) (A) (A) (A) (A) (A) (A) (A) (A) (A) (A)
                 (A) (A) (A) (A) (A) (A) (A) (A) (A) (A) (A) (A)
                 (A) (A) (A) (A) (A) (A) (A) (A) (A) (A) (A) (A)
                 (A) (A) (A) (A) (A) (A) (A) (A) (A) (A) (A) (A)
                 (A) (A) (A) (A) (A) (A) (A) (A) (A) (A) (A) (A)
                 (A) (A) (A) (A) (A) (A) (A) (A) (A) (A) (A) (A)
                 (A) (A) (A) (A) (A) (A) (A) (A) (A) (A) (A) (A)
                 (A) (A) (A) (A) (A) (A) (A) (A) (A) (A) (A) (A)
                 (A) (A) (A) (A) (A) (A) (A) (A) (A) (A) (A) (A)
                 (A) (A) (A) (A) (A) (A) (A) (A) (A) (A) (A) (A)
                 (A) (A) (A) (A) (A) (A) (A) (A) (A) (A) (A) (A)
                 (A) (A) (A) (A) (A) (A) (A) (A) (A) (A) (A) (A)
                 (A) (A) (A) (A) (A) (A) (A) (A) (A) (A) (A) (A)
                 (A) (A) (A) (A) (A) (A) (A) (A) (A) (A) (A) (A)
                 (A) (A) (A) (A) (A) (A) (A) (A) (A) (A) (A) (A)
                 (A) (A) (A) (A) (A) (A) (A) (A) (A) (A) (A) (A)
                 (A) (A) (A) (A) (A) (A) (A) (A) (A) (A) (A) (A)
                 (A) (A) (A) (A) (A) (A) (A) (A) (A) (A) (A) (A)
                 (A) (A) (A) (A) (A) (A) (A) (A) (A) (A) (A) (A)
                 (A) (A) (A) (A) (A) (A) (A) (A) (A) (A) (A) (A)
                 (A) (A) (A) (A) (A) (A) (A) (A) (A) (A) (A) (A)
                 (A) (A) (A) (A) (A) (A) (A) (A) (A) (A) (A) (A)
                 (A) (A) (A) (A) (A) (A) (A) (A) (A) (A) (A) (A)
                 (A) (A) (A) (A) (A) (A) (A) (A) (A) (A) (A) (A)
                 (A) (A) (A) (A) (A) (A) (A) (A) (A) (A) (A) (A)
                 (A) (A) (A) (A) (A) (A) (A) (A) (A) (A) (A) (A)
                 (A) (A) (A) (A) (A) (A) (A) (A) (A) (A) (A) (A)
                 (A) (A) (A) (A) (A) (A) (A) (A) (A) (A) (A) (A)
                 (A) (A) (A) (A) (A) (A) (A) (A) (A) (A) (A) (A)
                 (A) (A) (A) (A) (A) (A) (A) (A) (A) (A) (A) (A)
                 (A) (A) (A) (A) (A) (A) (A) (A) (A) (A) (A) (A)
                 (A) (A) (A) (A) (A) (A) (A) (A) (A) (A) (A) (A)
                 (A) (A) (A) (A) (A) (A) (A) (A) (A) (A) (A) (A)
                 (A) (A) (A) (A) (A) (A) (A) (A) (A) (A) (A) (A)
                 (A) (A) (A) (A) (A) (A) (A) (A) (A) (A) (A) (A)
                 (A) (A) (A) (A) (A) (A) (A) (A) (A) (A) (A) (A)
                 (A) (A) (A) (A) (A) (A) (A) (A) (A) (A) (A) (A)
                 (A) (A) (A) (A) (A) (A) (A) (A) (A) (A) (A) (A)
                 (A) (A) (A) (A) (A) (A) (A) (A) (A) (A) (A) (A)
                 (A) (A) (A) (A) (A) (A) (A) (A) (A) (A) (A) (A)
 The electronic state is 3-A.
 Alpha  occ. eigenvalues --  -77.08401 -77.08103 -19.17647 -19.06578 -19.05344
 Alpha  occ. eigenvalues --  -14.33979 -10.26655 -10.24011 -10.23976 -10.20910
 Alpha  occ. eigenvalues --  -10.20819 -10.20802 -10.20637 -10.20500 -10.19652
 Alpha  occ. eigenvalues --  -10.19647 -10.19549 -10.19503 -10.17623 -10.17471
 Alpha  occ. eigenvalues --  -10.17449 -10.17401 -10.17365 -10.17329 -10.17284
 Alpha  occ. eigenvalues --  -10.17262 -10.17130 -10.17117 -10.16974 -10.16478
 Alpha  occ. eigenvalues --   -6.57568  -6.57280  -4.74172  -4.74115  -4.73908
 Alpha  occ. eigenvalues --   -4.73886  -4.73827  -4.73619  -3.05730  -1.90392
 Alpha  occ. eigenvalues --   -1.90258  -1.88416  -1.07875  -0.95474  -0.88385
 Alpha  occ. eigenvalues --   -0.85459  -0.82362  -0.81803  -0.79917  -0.79878
 Alpha  occ. eigenvalues --   -0.79625  -0.79373  -0.73696  -0.70046  -0.68011
 Alpha  occ. eigenvalues --   -0.67888  -0.67810  -0.67529  -0.67044  -0.66972
 Alpha  occ. eigenvalues --   -0.66753  -0.66640  -0.63849  -0.62973  -0.59716
 Alpha  occ. eigenvalues --   -0.59441  -0.54416  -0.54159  -0.54042  -0.51597
 Alpha  occ. eigenvalues --   -0.51270  -0.50222  -0.49507  -0.47123  -0.46921
 Alpha  occ. eigenvalues --   -0.45734  -0.45409  -0.44986  -0.44703  -0.44623
 Alpha  occ. eigenvalues --   -0.44266  -0.43965  -0.43810  -0.43187  -0.43076
 Alpha  occ. eigenvalues --   -0.42795  -0.42576  -0.42234  -0.42103  -0.41593
 Alpha  occ. eigenvalues --   -0.41419  -0.41191  -0.40429  -0.40029  -0.39109
 Alpha  occ. eigenvalues --   -0.38870  -0.38683  -0.37772  -0.37464  -0.37295
 Alpha  occ. eigenvalues --   -0.37257  -0.37120  -0.36979  -0.36724  -0.36700
 Alpha  occ. eigenvalues --   -0.36247  -0.35825  -0.35518  -0.35463  -0.34847
 Alpha  occ. eigenvalues --   -0.34484  -0.34161  -0.33696  -0.33027  -0.32714
 Alpha  occ. eigenvalues --   -0.32664  -0.32322  -0.32163  -0.31585  -0.31122
 Alpha  occ. eigenvalues --   -0.30931  -0.30077  -0.29426  -0.29216  -0.28884
 Alpha  occ. eigenvalues --   -0.28529  -0.27938  -0.25527  -0.25397  -0.25033
 Alpha  occ. eigenvalues --   -0.24051  -0.21947  -0.20711  -0.17729
 Alpha virt. eigenvalues --   -0.04001  -0.03311  -0.02382   0.00446   0.01330
 Alpha virt. eigenvalues --    0.04379   0.04557   0.05371   0.06009   0.06227
 Alpha virt. eigenvalues --    0.07321   0.07486   0.07901   0.08201   0.08462
 Alpha virt. eigenvalues --    0.08643   0.09168   0.09682   0.10062   0.10366
 Alpha virt. eigenvalues --    0.10603   0.10915   0.11346   0.11865   0.12269
 Alpha virt. eigenvalues --    0.12315   0.12670   0.13364   0.13543   0.13587
 Alpha virt. eigenvalues --    0.13875   0.14009   0.14071   0.14836   0.14900
 Alpha virt. eigenvalues --    0.15233   0.15442   0.16030   0.16235   0.16601
 Alpha virt. eigenvalues --    0.16803   0.16966   0.17504   0.17693   0.17910
 Alpha virt. eigenvalues --    0.17983   0.18487   0.18771   0.19153   0.19747
 Alpha virt. eigenvalues --    0.20107   0.20195   0.20625   0.20758   0.20966
 Alpha virt. eigenvalues --    0.21124   0.21300   0.21574   0.21755   0.22109
 Alpha virt. eigenvalues --    0.22676   0.23108   0.23368   0.24292   0.24546
 Alpha virt. eigenvalues --    0.24806   0.25220   0.25595   0.25807   0.26162
 Alpha virt. eigenvalues --    0.26632   0.27485   0.27910   0.28699   0.29819
 Alpha virt. eigenvalues --    0.30811   0.31176   0.31552   0.32155   0.34454
 Alpha virt. eigenvalues --    0.35540   0.35774   0.36459   0.37816   0.38522
 Alpha virt. eigenvalues --    0.39491   0.39817   0.40483   0.40638   0.40846
 Alpha virt. eigenvalues --    0.41230   0.41641   0.42416   0.43028   0.43195
 Alpha virt. eigenvalues --    0.43576   0.44071   0.44839   0.45494   0.45745
 Alpha virt. eigenvalues --    0.46431   0.46786   0.47976   0.48353   0.48999
 Alpha virt. eigenvalues --    0.49143   0.50013   0.51638   0.52066   0.52447
 Alpha virt. eigenvalues --    0.52699   0.53345   0.53432   0.53980   0.54069
 Alpha virt. eigenvalues --    0.54510   0.55488   0.56149   0.56561   0.57421
 Alpha virt. eigenvalues --    0.58077   0.58182   0.58400   0.59006   0.59458
 Alpha virt. eigenvalues --    0.59762   0.60039   0.60511   0.61172   0.61338
 Alpha virt. eigenvalues --    0.62013   0.62365   0.62625   0.62951   0.63271
 Alpha virt. eigenvalues --    0.63471   0.63686   0.64526   0.64568   0.64859
 Alpha virt. eigenvalues --    0.65184   0.65328   0.65704   0.65836   0.65982
 Alpha virt. eigenvalues --    0.66188   0.66379   0.66758   0.67070   0.67172
 Alpha virt. eigenvalues --    0.67517   0.67847   0.68081   0.68408   0.68521
 Alpha virt. eigenvalues --    0.68774   0.68829   0.69123   0.69319   0.69332
 Alpha virt. eigenvalues --    0.69765   0.70518   0.70558   0.70808   0.71102
 Alpha virt. eigenvalues --    0.71195   0.71313   0.71449   0.72262   0.72501
 Alpha virt. eigenvalues --    0.72609   0.72903   0.73202   0.73307   0.73461
 Alpha virt. eigenvalues --    0.73575   0.73889   0.74381   0.74715   0.74935
 Alpha virt. eigenvalues --    0.75265   0.75582   0.75984   0.76222   0.76633
 Alpha virt. eigenvalues --    0.76938   0.77516   0.78048   0.78159   0.78576
 Alpha virt. eigenvalues --    0.78652   0.79235   0.79371   0.80369   0.80573
 Alpha virt. eigenvalues --    0.81014   0.81073   0.81628   0.81911   0.82122
 Alpha virt. eigenvalues --    0.82571   0.83196   0.83468   0.84368   0.84790
 Alpha virt. eigenvalues --    0.85428   0.85923   0.86561   0.87295   0.87779
 Alpha virt. eigenvalues --    0.88626   0.89108   0.89479   0.89982   0.90946
 Alpha virt. eigenvalues --    0.91397   0.91817   0.93105   0.94348   0.95038
 Alpha virt. eigenvalues --    0.95855   0.95938   0.97564   0.99269   0.99961
 Alpha virt. eigenvalues --    1.01786   1.02111   1.02818   1.03243   1.03614
 Alpha virt. eigenvalues --    1.04629   1.05266   1.06229   1.06434   1.07523
 Alpha virt. eigenvalues --    1.07851   1.08347   1.09197   1.10212   1.11375
 Alpha virt. eigenvalues --    1.12211   1.12515   1.12889   1.14709   1.15152
 Alpha virt. eigenvalues --    1.16090   1.16631   1.16935   1.18470   1.18783
 Alpha virt. eigenvalues --    1.18872   1.20040   1.20287   1.21001   1.21870
 Alpha virt. eigenvalues --    1.22350   1.23139   1.24093   1.24602   1.24668
 Alpha virt. eigenvalues --    1.25156   1.25905   1.27251   1.27625   1.28317
 Alpha virt. eigenvalues --    1.28874   1.29387   1.30087   1.30636   1.31304
 Alpha virt. eigenvalues --    1.31971   1.33140   1.34428   1.36411   1.37422
 Alpha virt. eigenvalues --    1.37672   1.39341   1.41711   1.43550   1.44407
 Alpha virt. eigenvalues --    1.45781   1.48145   1.48919   1.49468   1.49885
 Alpha virt. eigenvalues --    1.51133   1.51851   1.52130   1.53019   1.53153
 Alpha virt. eigenvalues --    1.53658   1.54187   1.54487   1.54885   1.55491
 Alpha virt. eigenvalues --    1.56030   1.56368   1.56715   1.57093   1.57765
 Alpha virt. eigenvalues --    1.58139   1.58528   1.58584   1.58956   1.59390
 Alpha virt. eigenvalues --    1.59480   1.60124   1.60869   1.61432   1.61781
 Alpha virt. eigenvalues --    1.62523   1.62690   1.63534   1.63861   1.64628
 Alpha virt. eigenvalues --    1.65330   1.65690   1.66080   1.66433   1.66770
 Alpha virt. eigenvalues --    1.67855   1.68550   1.69154   1.69619   1.70835
 Alpha virt. eigenvalues --    1.71869   1.72638   1.73135   1.74126   1.74807
 Alpha virt. eigenvalues --    1.76239   1.76692   1.76945   1.77244   1.77422
 Alpha virt. eigenvalues --    1.78281   1.78632   1.78942   1.79015   1.79236
 Alpha virt. eigenvalues --    1.79539   1.80121   1.80178   1.81081   1.81238
 Alpha virt. eigenvalues --    1.81541   1.82335   1.82450   1.82731   1.83435
 Alpha virt. eigenvalues --    1.83727   1.84305   1.84470   1.84586   1.85239
 Alpha virt. eigenvalues --    1.85317   1.85728   1.86064   1.86311   1.86953
 Alpha virt. eigenvalues --    1.87298   1.87706   1.88025   1.88126   1.88805
 Alpha virt. eigenvalues --    1.89190   1.90316   1.90565   1.91042   1.91530
 Alpha virt. eigenvalues --    1.92513   1.92686   1.93080   1.93325   1.93602
 Alpha virt. eigenvalues --    1.93788   1.93998   1.94281   1.94314   1.94703
 Alpha virt. eigenvalues --    1.95355   1.95761   1.95865   1.96066   1.96920
 Alpha virt. eigenvalues --    1.97313   1.98135   1.98482   1.98873   1.99180
 Alpha virt. eigenvalues --    1.99816   2.00590   2.00818   2.01052   2.01468
 Alpha virt. eigenvalues --    2.01967   2.02393   2.02520   2.03687   2.03798
 Alpha virt. eigenvalues --    2.04355   2.05321   2.07056   2.08122   2.09777
 Alpha virt. eigenvalues --    2.10732   2.11921   2.14964   2.15780   2.16089
 Alpha virt. eigenvalues --    2.16641   2.16803   2.17595   2.17778   2.18304
 Alpha virt. eigenvalues --    2.18540   2.18899   2.19102   2.19620   2.19991
 Alpha virt. eigenvalues --    2.20457   2.20811   2.21427   2.22213   2.22625
 Alpha virt. eigenvalues --    2.22687   2.23239   2.24059   2.24226   2.24862
 Alpha virt. eigenvalues --    2.25093   2.27202   2.28052   2.29108   2.29343
 Alpha virt. eigenvalues --    2.30070   2.35014   2.37979   2.38431   2.38875
 Alpha virt. eigenvalues --    2.39236   2.39940   2.40543   2.40835   2.41285
 Alpha virt. eigenvalues --    2.42073   2.42174   2.42505   2.42938   2.43201
 Alpha virt. eigenvalues --    2.44365   2.44821   2.45865   2.46992   2.47105
 Alpha virt. eigenvalues --    2.47633   2.48923   2.50204   2.51262   2.52189
 Alpha virt. eigenvalues --    2.55230   2.55521   2.55924   2.56238   2.56387
 Alpha virt. eigenvalues --    2.56456   2.56645   2.57481   2.58277   2.61309
 Alpha virt. eigenvalues --    2.62085   2.62403   2.62764   2.62929   2.63457
 Alpha virt. eigenvalues --    2.63682   2.63817   2.64009   2.64240   2.64831
 Alpha virt. eigenvalues --    2.64924   2.65250   2.65880   2.65909   2.67584
 Alpha virt. eigenvalues --    2.69192   2.72369   2.72558   2.72937   2.73218
 Alpha virt. eigenvalues --    2.73730   2.74131   2.74550   2.75688   2.80469
 Alpha virt. eigenvalues --    2.81447   2.82462   2.84252   2.86261   2.87093
 Alpha virt. eigenvalues --    2.87491   2.87712   2.88458   2.88904   2.89157
 Alpha virt. eigenvalues --    2.89273   2.89759   2.90875   2.91310   2.92872
 Alpha virt. eigenvalues --    2.93033   2.93581   2.94373   2.94894   2.95718
 Alpha virt. eigenvalues --    2.95834   2.96293   2.96453   2.96956   2.97113
 Alpha virt. eigenvalues --    2.97537   2.98198   2.98929   2.99608   2.99859
 Alpha virt. eigenvalues --    3.02092   3.02325   3.03995   3.04352   3.05065
 Alpha virt. eigenvalues --    3.05729   3.06518   3.06949   3.07785   3.08641
 Alpha virt. eigenvalues --    3.08891   3.09660   3.09950   3.11165   3.12023
 Alpha virt. eigenvalues --    3.12567   3.14333   3.18925   3.20102   3.36349
 Alpha virt. eigenvalues --    3.61975   3.73278   3.79855   3.87119  45.25958
  Beta  occ. eigenvalues --  -77.08365 -77.08066 -19.17776 -19.06571 -19.04881
  Beta  occ. eigenvalues --  -14.33681 -10.26819 -10.24022 -10.23987 -10.20879
  Beta  occ. eigenvalues --  -10.20812 -10.20810 -10.20613 -10.20489 -10.19638
  Beta  occ. eigenvalues --  -10.19633 -10.19548 -10.19501 -10.17624 -10.17467
  Beta  occ. eigenvalues --  -10.17449 -10.17394 -10.17365 -10.17323 -10.17277
  Beta  occ. eigenvalues --  -10.17263 -10.17128 -10.17117 -10.16976 -10.16478
  Beta  occ. eigenvalues --   -6.57525  -6.57236  -4.74142  -4.74089  -4.73856
  Beta  occ. eigenvalues --   -4.73820  -4.73800  -4.73525  -2.99698  -1.85594
  Beta  occ. eigenvalues --   -1.82506  -1.80905  -1.08106  -0.95222  -0.88350
  Beta  occ. eigenvalues --   -0.84438  -0.82312  -0.81748  -0.79878  -0.79809
  Beta  occ. eigenvalues --   -0.79602  -0.79350  -0.73644  -0.70000  -0.67994
  Beta  occ. eigenvalues --   -0.67881  -0.67793  -0.67526  -0.67040  -0.66962
  Beta  occ. eigenvalues --   -0.66741  -0.66639  -0.63721  -0.62860  -0.59610
  Beta  occ. eigenvalues --   -0.59323  -0.54465  -0.54298  -0.54021  -0.51541
  Beta  occ. eigenvalues --   -0.51192  -0.50128  -0.49459  -0.47072  -0.46906
  Beta  occ. eigenvalues --   -0.45647  -0.45358  -0.44880  -0.44630  -0.44585
  Beta  occ. eigenvalues --   -0.44261  -0.43936  -0.43790  -0.43265  -0.43075
  Beta  occ. eigenvalues --   -0.42766  -0.42610  -0.42256  -0.42094  -0.41645
  Beta  occ. eigenvalues --   -0.41429  -0.41195  -0.40152  -0.39982  -0.39085
  Beta  occ. eigenvalues --   -0.38841  -0.38658  -0.37757  -0.37444  -0.37254
  Beta  occ. eigenvalues --   -0.37236  -0.37117  -0.36937  -0.36683  -0.36327
  Beta  occ. eigenvalues --   -0.36193  -0.35785  -0.35512  -0.35455  -0.34728
  Beta  occ. eigenvalues --   -0.34436  -0.34000  -0.33610  -0.33014  -0.32700
  Beta  occ. eigenvalues --   -0.32436  -0.32273  -0.32086  -0.31472  -0.30341
  Beta  occ. eigenvalues --   -0.29514  -0.29225  -0.28915  -0.27901  -0.27492
  Beta  occ. eigenvalues --   -0.27370  -0.26007  -0.25273  -0.23198  -0.23009
  Beta  occ. eigenvalues --   -0.22387  -0.20410
  Beta virt. eigenvalues --   -0.09268  -0.05792  -0.03755  -0.02388  -0.00913
  Beta virt. eigenvalues --    0.01036   0.01662   0.04458   0.04922   0.05729
  Beta virt. eigenvalues --    0.06237   0.06542   0.07366   0.07633   0.07990
  Beta virt. eigenvalues --    0.08249   0.08576   0.08697   0.09260   0.09714
  Beta virt. eigenvalues --    0.10094   0.10416   0.10637   0.10970   0.11373
  Beta virt. eigenvalues --    0.11880   0.12332   0.12340   0.12788   0.13430
  Beta virt. eigenvalues --    0.13618   0.13655   0.13928   0.14036   0.14117
  Beta virt. eigenvalues --    0.14884   0.14923   0.15258   0.15490   0.16112
  Beta virt. eigenvalues --    0.16303   0.16647   0.16909   0.17036   0.17530
  Beta virt. eigenvalues --    0.17717   0.17947   0.18055   0.18530   0.18784
  Beta virt. eigenvalues --    0.19236   0.19840   0.20157   0.20252   0.20700
  Beta virt. eigenvalues --    0.20841   0.21073   0.21187   0.21330   0.21625
  Beta virt. eigenvalues --    0.21806   0.22208   0.22713   0.23154   0.23577
  Beta virt. eigenvalues --    0.24352   0.24625   0.24885   0.25292   0.25778
  Beta virt. eigenvalues --    0.26001   0.26215   0.26782   0.27549   0.28033
  Beta virt. eigenvalues --    0.28892   0.30088   0.30912   0.31293   0.31667
  Beta virt. eigenvalues --    0.32616   0.34597   0.35809   0.36056   0.36756
  Beta virt. eigenvalues --    0.38038   0.38948   0.39549   0.39839   0.40597
  Beta virt. eigenvalues --    0.40682   0.40956   0.41347   0.41763   0.42598
  Beta virt. eigenvalues --    0.43131   0.43287   0.43712   0.44166   0.44927
  Beta virt. eigenvalues --    0.45605   0.45801   0.46517   0.46915   0.48172
  Beta virt. eigenvalues --    0.48678   0.49103   0.49386   0.50135   0.51791
  Beta virt. eigenvalues --    0.52281   0.52548   0.52902   0.53416   0.53491
  Beta virt. eigenvalues --    0.54128   0.54278   0.54589   0.55582   0.56211
  Beta virt. eigenvalues --    0.56672   0.57503   0.58243   0.58284   0.58535
  Beta virt. eigenvalues --    0.59089   0.59525   0.59930   0.60110   0.60558
  Beta virt. eigenvalues --    0.61253   0.61383   0.62112   0.62586   0.62731
  Beta virt. eigenvalues --    0.63022   0.63315   0.63545   0.63743   0.64579
  Beta virt. eigenvalues --    0.64628   0.64887   0.65240   0.65368   0.65768
  Beta virt. eigenvalues --    0.65883   0.66023   0.66240   0.66431   0.66791
  Beta virt. eigenvalues --    0.67173   0.67209   0.67570   0.67889   0.68176
  Beta virt. eigenvalues --    0.68474   0.68570   0.68834   0.68894   0.69225
  Beta virt. eigenvalues --    0.69353   0.69407   0.69822   0.70552   0.70594
  Beta virt. eigenvalues --    0.70836   0.71159   0.71323   0.71360   0.71484
  Beta virt. eigenvalues --    0.72297   0.72582   0.72668   0.72972   0.73219
  Beta virt. eigenvalues --    0.73364   0.73491   0.73632   0.73969   0.74445
  Beta virt. eigenvalues --    0.74821   0.75053   0.75314   0.75682   0.76044
  Beta virt. eigenvalues --    0.76306   0.76710   0.77037   0.77588   0.78122
  Beta virt. eigenvalues --    0.78223   0.78631   0.78734   0.79300   0.79492
  Beta virt. eigenvalues --    0.80426   0.80628   0.81079   0.81303   0.81669
  Beta virt. eigenvalues --    0.82039   0.82206   0.82626   0.83231   0.83602
  Beta virt. eigenvalues --    0.84414   0.84906   0.85499   0.86060   0.86705
  Beta virt. eigenvalues --    0.87415   0.87940   0.88720   0.89308   0.89639
  Beta virt. eigenvalues --    0.90121   0.91140   0.91486   0.91912   0.93229
  Beta virt. eigenvalues --    0.94535   0.95132   0.95990   0.96100   0.97744
  Beta virt. eigenvalues --    0.99401   1.00356   1.01937   1.02332   1.02902
  Beta virt. eigenvalues --    1.03421   1.03830   1.04795   1.05328   1.06319
  Beta virt. eigenvalues --    1.06719   1.07598   1.08065   1.08502   1.09343
  Beta virt. eigenvalues --    1.10402   1.11462   1.12338   1.12694   1.12943
  Beta virt. eigenvalues --    1.14864   1.15351   1.16193   1.16653   1.16982
  Beta virt. eigenvalues --    1.18618   1.18895   1.19017   1.20149   1.20408
  Beta virt. eigenvalues --    1.21058   1.22028   1.22433   1.23222   1.24159
  Beta virt. eigenvalues --    1.24674   1.24716   1.25219   1.25954   1.27300
  Beta virt. eigenvalues --    1.27889   1.28411   1.29035   1.29517   1.30272
  Beta virt. eigenvalues --    1.30761   1.31336   1.32033   1.33228   1.34526
  Beta virt. eigenvalues --    1.36635   1.37508   1.37794   1.39487   1.41868
  Beta virt. eigenvalues --    1.43661   1.44535   1.46006   1.48245   1.49064
  Beta virt. eigenvalues --    1.49552   1.49942   1.51256   1.51960   1.52226
  Beta virt. eigenvalues --    1.53107   1.53211   1.53714   1.54216   1.54574
  Beta virt. eigenvalues --    1.54907   1.55555   1.56086   1.56412   1.56745
  Beta virt. eigenvalues --    1.57146   1.57822   1.58243   1.58582   1.58623
  Beta virt. eigenvalues --    1.58990   1.59414   1.59521   1.60174   1.60927
  Beta virt. eigenvalues --    1.61477   1.61903   1.62760   1.62889   1.63645
  Beta virt. eigenvalues --    1.64070   1.64731   1.65419   1.65764   1.66242
  Beta virt. eigenvalues --    1.66489   1.67226   1.67957   1.68807   1.69723
  Beta virt. eigenvalues --    1.69988   1.70867   1.72048   1.72690   1.73254
  Beta virt. eigenvalues --    1.74147   1.74863   1.76315   1.76807   1.77005
  Beta virt. eigenvalues --    1.77325   1.77465   1.78347   1.78669   1.78989
  Beta virt. eigenvalues --    1.79082   1.79386   1.79609   1.80221   1.80440
  Beta virt. eigenvalues --    1.81190   1.81329   1.81623   1.82399   1.82618
  Beta virt. eigenvalues --    1.82782   1.83732   1.84065   1.84471   1.84538
  Beta virt. eigenvalues --    1.84629   1.85378   1.85592   1.85764   1.86171
  Beta virt. eigenvalues --    1.86384   1.87054   1.87443   1.88014   1.88531
  Beta virt. eigenvalues --    1.89447   1.90409   1.90809   1.91343   1.91821
  Beta virt. eigenvalues --    1.92083   1.92593   1.92904   1.93109   1.93525
  Beta virt. eigenvalues --    1.93768   1.93955   1.94213   1.94277   1.94796
  Beta virt. eigenvalues --    1.95015   1.95169   1.95823   1.95934   1.96483
  Beta virt. eigenvalues --    1.96944   1.97117   1.97955   1.98356   1.98954
  Beta virt. eigenvalues --    1.99081   1.99856   2.00100   2.00681   2.00963
  Beta virt. eigenvalues --    2.01350   2.01821   2.02478   2.02553   2.03827
  Beta virt. eigenvalues --    2.03950   2.04407   2.04543   2.07065   2.08472
  Beta virt. eigenvalues --    2.09468   2.10089   2.11555   2.12337   2.15135
  Beta virt. eigenvalues --    2.15819   2.16134   2.16682   2.16899   2.17636
  Beta virt. eigenvalues --    2.17886   2.18333   2.18579   2.18983   2.19165
  Beta virt. eigenvalues --    2.19742   2.20054   2.20523   2.20851   2.21504
  Beta virt. eigenvalues --    2.22284   2.22705   2.22791   2.23271   2.24142
  Beta virt. eigenvalues --    2.24313   2.24943   2.25220   2.27300   2.28174
  Beta virt. eigenvalues --    2.29359   2.29790   2.31133   2.35063   2.38047
  Beta virt. eigenvalues --    2.38492   2.38891   2.39263   2.39996   2.40596
  Beta virt. eigenvalues --    2.40867   2.41319   2.42107   2.42204   2.42546
  Beta virt. eigenvalues --    2.42950   2.43245   2.44406   2.44939   2.45881
  Beta virt. eigenvalues --    2.47046   2.47150   2.47659   2.48939   2.50253
  Beta virt. eigenvalues --    2.51294   2.52208   2.55250   2.55540   2.55956
  Beta virt. eigenvalues --    2.56261   2.56409   2.56484   2.56670   2.57498
  Beta virt. eigenvalues --    2.58295   2.61323   2.62045   2.62382   2.62774
  Beta virt. eigenvalues --    2.62946   2.63466   2.63690   2.63850   2.64031
  Beta virt. eigenvalues --    2.64240   2.64548   2.64874   2.65270   2.65798
  Beta virt. eigenvalues --    2.66077   2.67481   2.69252   2.72514   2.72602
  Beta virt. eigenvalues --    2.72955   2.73321   2.73905   2.74218   2.75363
  Beta virt. eigenvalues --    2.75987   2.80626   2.81673   2.83257   2.84335
  Beta virt. eigenvalues --    2.86309   2.87110   2.87525   2.87726   2.88491
  Beta virt. eigenvalues --    2.88919   2.89179   2.89288   2.89771   2.90885
  Beta virt. eigenvalues --    2.91318   2.92890   2.93043   2.93644   2.94390
  Beta virt. eigenvalues --    2.94936   2.95753   2.95854   2.96342   2.96554
  Beta virt. eigenvalues --    2.96965   2.97236   2.97611   2.98230   2.98941
  Beta virt. eigenvalues --    2.99652   2.99945   3.02102   3.02337   3.04069
  Beta virt. eigenvalues --    3.04853   3.05233   3.05909   3.06798   3.07140
  Beta virt. eigenvalues --    3.07892   3.08709   3.08912   3.09675   3.09957
  Beta virt. eigenvalues --    3.11172   3.12032   3.12591   3.14474   3.18694
  Beta virt. eigenvalues --    3.19908   3.36700   3.62106   3.73204   3.80278
  Beta virt. eigenvalues --    3.87163  45.12934
          Condensed to atoms (all electrons):
          Atomic-Atomic Spin Densities.
 Mulliken charges and spin densities:
               1          2
     1  P    0.273968   0.079284
     2  N   -0.119904   0.077080
     3  C    0.019888   0.004233
     4  H    0.063576  -0.000062
     5  H    0.093052  -0.000141
     6  O   -0.543110  -0.001205
     7  P    0.276200   0.085053
     8  C   -0.045729  -0.006448
     9  C   -0.001008   0.006263
    10  H    0.010714   0.001189
    11  C    0.067090  -0.005804
    12  H    0.023659   0.000158
    13  C   -0.004165   0.006269
    14  H    0.010249   0.001229
    15  C   -0.036539  -0.006475
    16  C    0.013819   0.005363
    17  H    0.065607   0.000028
    18  H    0.093164  -0.000234
    19  Ru  -0.019049   1.699942
    20  H    0.173402   0.001085
    21  C   -0.381388   0.003596
    22  C   -0.390353   0.008694
    23  C   -0.388409   0.011368
    24  C   -0.394004   0.001800
    25  C    0.072814  -0.000522
    26  H    0.025276   0.000053
    27  H    0.041697   0.001604
    28  H    0.017954  -0.000124
    29  C    0.082864   0.000164
    30  H    0.014389  -0.000071
    31  H    0.031944   0.001808
    32  H    0.011873  -0.000002
    33  C    0.077614   0.000606
    34  H    0.013651   0.001294
    35  H    0.037324  -0.000006
    36  H    0.026767   0.000023
    37  C    0.080389   0.001534
    38  H    0.012731  -0.000041
    39  H    0.016657   0.002427
    40  H    0.025518  -0.000072
    41  C    0.072950  -0.000043
    42  H    0.015872   0.000164
    43  H    0.036554   0.000013
    44  H    0.037834   0.000984
    45  C    0.058092   0.000877
    46  H    0.023552  -0.001310
    47  H    0.035673   0.000137
    48  H    0.019816  -0.000130
    49  C    0.074304   0.000214
    50  H    0.006764  -0.000128
    51  H    0.016197   0.000265
    52  H    0.005093   0.000026
    53  C    0.078783   0.001233
    54  H    0.011259   0.001501
    55  H    0.034063  -0.000028
    56  H    0.026685  -0.000059
    57  C    0.070895  -0.000586
    58  H    0.023446   0.000028
    59  H    0.027404   0.000579
    60  H    0.012329  -0.000020
    61  C    0.076953  -0.000047
    62  H    0.042817   0.001224
    63  H    0.022356   0.000066
    64  H    0.013960  -0.000261
    65  C    0.080555   0.001282
    66  H    0.010690   0.000016
    67  H    0.014644   0.002185
    68  H    0.023252  -0.000069
    69  C    0.069738  -0.000178
    70  H    0.013744   0.000040
    71  H    0.037469   0.000039
    72  H    0.039177   0.001221
    73  O   -0.643908   0.146638
    74  C    0.049569  -0.097339
    75  H    0.160888   0.001277
    76  O   -0.149659  -0.040755
 Sum of Mulliken charges =  -0.00000   2.00000
 Mulliken charges and spin densities with hydrogens summed into heavy atoms:
               1          2
     1  P    0.273968   0.079284
     2  N   -0.119904   0.077080
     3  C    0.176516   0.004030
     6  O   -0.369709  -0.000120
     7  P    0.276200   0.085053
     8  C   -0.045729  -0.006448
     9  C    0.009706   0.007452
    11  C    0.090749  -0.005645
    13  C    0.006084   0.007498
    15  C   -0.036539  -0.006475
    16  C    0.172589   0.005156
    19  Ru  -0.019049   1.699942
    21  C   -0.381388   0.003596
    22  C   -0.390353   0.008694
    23  C   -0.388409   0.011368
    24  C   -0.394004   0.001800
    25  C    0.157741   0.001011
    29  C    0.141069   0.001899
    33  C    0.155356   0.001918
    37  C    0.135295   0.003848
    41  C    0.163211   0.001119
    45  C    0.137133  -0.000426
    49  C    0.102358   0.000378
    53  C    0.150790   0.002647
    57  C    0.134074   0.000001
    61  C    0.156086   0.000982
    65  C    0.129140   0.003414
    69  C    0.160129   0.001122
    73  O   -0.483020   0.147915
    74  C    0.049569  -0.097339
    76  O   -0.149659  -0.040755
 Electronic spatial extent (au):  <R**2>=          13870.7426
 Charge=             -0.0000 electrons
 Dipole moment (field-independent basis, Debye):
    X=              2.1691    Y=             16.7989    Z=              0.2680  Tot=             16.9405
 Quadrupole moment (field-independent basis, Debye-Ang):
   XX=           -169.0219   YY=           -238.2879   ZZ=           -230.5512
   XY=             -2.0328   XZ=            -11.9896   YZ=              3.7102
 Traceless Quadrupole moment (field-independent basis, Debye-Ang):
   XX=             43.5984   YY=            -25.6676   ZZ=            -17.9309
   XY=             -2.0328   XZ=            -11.9896   YZ=              3.7102
 Octapole moment (field-independent basis, Debye-Ang**2):
  XXX=             15.3946  YYY=            190.5017  ZZZ=            -17.0009  XYY=              4.4509
  XXY=            -12.0765  XXZ=             -2.0721  XZZ=             14.6715  YZZ=             -7.7733
  YYZ=            -10.9629  XYZ=              5.7875
 Hexadecapole moment (field-independent basis, Debye-Ang**3):
 XXXX=         -10386.2468 YYYY=          -4616.5685 ZZZZ=          -3414.0977 XXXY=            -11.0687
 XXXZ=            -64.3446 YYYX=              5.4132 YYYZ=             52.2272 ZZZX=            -44.7688
 ZZZY=             41.8071 XXYY=          -2490.8601 XXZZ=          -2276.1064 YYZZ=          -1317.0544
 XXYZ=              4.3319 YYXZ=            -79.2530 ZZXY=            -17.1769
 N-N= 4.438601341732D+03 E-N=-1.353059449847D+04  KE= 1.921293045506D+03
                          Isotropic Fermi Contact Couplings
        Atom                 a.u.       MegaHertz       Gauss      10(-4) cm-1
     1  P(31)              0.09639      87.28997      31.14723      29.11680
     2  N(14)              0.18730      30.25799      10.79680      10.09298
     3  C(13)             -0.00446      -2.50434      -0.89361      -0.83536
     4  H(1)               0.00007       0.15130       0.05399       0.05047
     5  H(1)              -0.00008      -0.18884      -0.06738      -0.06299
     6  O(17)              0.00577      -1.74985      -0.62439      -0.58369
     7  P(31)              0.09672      87.58125      31.25117      29.21396
     8  C(13)             -0.00558      -3.13391      -1.11826      -1.04536
     9  C(13)              0.00684       3.84350       1.37145       1.28205
    10  H(1)               0.00023       0.50893       0.18160       0.16976
    11  C(13)             -0.00123      -0.69108      -0.24659      -0.23052
    12  H(1)               0.00006       0.13057       0.04659       0.04355
    13  C(13)              0.00685       3.84785       1.37301       1.28351
    14  H(1)               0.00024       0.52838       0.18854       0.17625
    15  C(13)             -0.00572      -3.21570      -1.14744      -1.07264
    16  C(13)             -0.00412      -2.31673      -0.82667      -0.77278
    17  H(1)               0.00009       0.19564       0.06981       0.06526
    18  H(1)              -0.00016      -0.35885      -0.12805      -0.11970
    19  Ru(99)            -0.00001       0.00096       0.00034       0.00032
    20  H(1)               0.00078       1.74462       0.62252       0.58194
    21  C(13)              0.00419       2.35575       0.84059       0.78579
    22  C(13)              0.00884       4.97113       1.77382       1.65819
    23  C(13)              0.01155       6.49027       2.31589       2.16492
    24  C(13)              0.00287       1.61536       0.57640       0.53883
    25  C(13)             -0.00050      -0.28090      -0.10023      -0.09370
    26  H(1)               0.00000       0.00157       0.00056       0.00052
    27  H(1)               0.00002       0.04668       0.01666       0.01557
    28  H(1)              -0.00004      -0.08361      -0.02983      -0.02789
    29  C(13)              0.00125       0.70159       0.25034       0.23402
    30  H(1)              -0.00001      -0.03027      -0.01080      -0.01010
    31  H(1)              -0.00002      -0.05074      -0.01811      -0.01693
    32  H(1)              -0.00001      -0.01188      -0.00424      -0.00396
    33  C(13)              0.00198       1.11564       0.39809       0.37214
    34  H(1)               0.00043       0.95729       0.34159       0.31932
    35  H(1)               0.00001       0.02665       0.00951       0.00889
    36  H(1)               0.00004       0.08389       0.02993       0.02798
    37  C(13)              0.00340       1.91017       0.68160       0.63716
    38  H(1)               0.00002       0.04841       0.01727       0.01615
    39  H(1)               0.00084       1.87929       0.67058       0.62686
    40  H(1)               0.00001       0.02084       0.00744       0.00695
    41  C(13)             -0.00042      -0.23749      -0.08474      -0.07922
    42  H(1)               0.00004       0.09829       0.03507       0.03279
    43  H(1)               0.00000       0.00142       0.00051       0.00047
    44  H(1)              -0.00002      -0.04848      -0.01730      -0.01617
    45  C(13)             -0.00030      -0.16982      -0.06060      -0.05665
    46  H(1)               0.00001       0.03034       0.01083       0.01012
    47  H(1)               0.00004       0.08529       0.03043       0.02845
    48  H(1)              -0.00003      -0.07787      -0.02778      -0.02597
    49  C(13)              0.00004       0.02313       0.00825       0.00771
    50  H(1)              -0.00003      -0.06874      -0.02453      -0.02293
    51  H(1)               0.00000       0.00725       0.00259       0.00242
    52  H(1)               0.00001       0.01908       0.00681       0.00636
    53  C(13)              0.00324       1.82111       0.64982       0.60746
    54  H(1)               0.00047       1.04079       0.37138       0.34717
    55  H(1)               0.00000       0.00407       0.00145       0.00136
    56  H(1)               0.00000       0.00800       0.00286       0.00267
    57  C(13)             -0.00067      -0.37517      -0.13387      -0.12514
    58  H(1)              -0.00001      -0.02908      -0.01038      -0.00970
    59  H(1)               0.00005       0.11212       0.04001       0.03740
    60  H(1)               0.00000       0.00325       0.00116       0.00108
    61  C(13)              0.00086       0.48592       0.17339       0.16209
    62  H(1)              -0.00002      -0.05353      -0.01910      -0.01786
    63  H(1)               0.00000       0.00732       0.00261       0.00244
    64  H(1)              -0.00009      -0.19662      -0.07016      -0.06559
    65  C(13)              0.00301       1.69011       0.60307       0.56376
    66  H(1)               0.00004       0.08755       0.03124       0.02920
    67  H(1)               0.00078       1.75123       0.62488       0.58415
    68  H(1)               0.00001       0.01766       0.00630       0.00589
    69  C(13)             -0.00034      -0.19137      -0.06828      -0.06383
    70  H(1)               0.00001       0.03232       0.01153       0.01078
    71  H(1)               0.00001       0.02500       0.00892       0.00834
    72  H(1)              -0.00003      -0.06241      -0.02227      -0.02082
    73  O(17)              0.12367     -37.48275     -13.37478     -12.50290
    74  C(13)             -0.05499     -30.91122     -11.02989     -10.31087
    75  H(1)              -0.00193      -4.31057      -1.53812      -1.43785
    76  O(17)             -0.01618       4.90305       1.74953       1.63548
 --------------------------------------------------------
       Center         ----  Spin Dipole Couplings  ----
                      3XX-RR        3YY-RR        3ZZ-RR
 --------------------------------------------------------
     1   Atom        0.071796      0.006353     -0.078149
     2   Atom       -0.119563      0.221083     -0.101521
     3   Atom        0.002111      0.008135     -0.010246
     4   Atom        0.001739      0.001575     -0.003313
     5   Atom       -0.000600      0.000117      0.000483
     6   Atom        0.026469     -0.002532     -0.023937
     7   Atom        0.075162      0.012115     -0.087277
     8   Atom        0.003985      0.011174     -0.015159
     9   Atom       -0.004921      0.007930     -0.003009
    10   Atom       -0.000783      0.002587     -0.001804
    11   Atom       -0.000994      0.007005     -0.006011
    12   Atom       -0.000858      0.002049     -0.001192
    13   Atom       -0.005014      0.007925     -0.002911
    14   Atom       -0.000871      0.002571     -0.001700
    15   Atom        0.001156      0.011185     -0.012341
    16   Atom        0.001233      0.008650     -0.009884
    17   Atom        0.001659      0.001646     -0.003304
    18   Atom       -0.000869     -0.000167      0.001035
    19   Atom        0.204384      0.361890     -0.566274
    20   Atom       -0.011659     -0.011472      0.023131
    21   Atom        0.004260     -0.004446      0.000186
    22   Atom        0.011758     -0.008559     -0.003199
    23   Atom        0.015067     -0.009579     -0.005489
    24   Atom        0.003560     -0.003789      0.000229
    25   Atom       -0.000319     -0.000210      0.000529
    26   Atom       -0.000333      0.001905     -0.001572
    27   Atom       -0.003696     -0.000956      0.004652
    28   Atom       -0.000458     -0.000598      0.001056
    29   Atom        0.002598     -0.003851      0.001252
    30   Atom        0.000268     -0.001940      0.001672
    31   Atom        0.000275     -0.004786      0.004511
    32   Atom        0.002828     -0.002317     -0.000510
    33   Atom        0.004057     -0.001411     -0.002646
    34   Atom        0.001172     -0.000773     -0.000398
    35   Atom        0.003039     -0.001507     -0.001532
    36   Atom        0.001778      0.000007     -0.001785
    37   Atom        0.005052     -0.003459     -0.001593
    38   Atom        0.003219     -0.001378     -0.001842
    39   Atom        0.002112     -0.001211     -0.000901
    40   Atom        0.001702     -0.001330     -0.000373
    41   Atom        0.005506     -0.001759     -0.003748
    42   Atom        0.003013     -0.000977     -0.002036
    43   Atom        0.004192     -0.001975     -0.002218
    44   Atom        0.006506     -0.001352     -0.005154
    45   Atom        0.002639     -0.004720      0.002081
    46   Atom        0.002372     -0.003469      0.001098
    47   Atom        0.000394     -0.004854      0.004459
    48   Atom        0.001409     -0.001959      0.000550
    49   Atom        0.002648     -0.004030      0.001382
    50   Atom        0.000899     -0.002154      0.001255
    51   Atom        0.001089     -0.006266      0.005177
    52   Atom        0.003648     -0.002732     -0.000916
    53   Atom        0.005428     -0.001974     -0.003455
    54   Atom        0.001365     -0.000916     -0.000448
    55   Atom        0.003334     -0.001650     -0.001684
    56   Atom        0.001941     -0.000101     -0.001840
    57   Atom       -0.000088      0.000061      0.000028
    58   Atom       -0.000216      0.002089     -0.001873
    59   Atom       -0.003843      0.000315      0.003528
    60   Atom       -0.000313     -0.000467      0.000780
    61   Atom        0.001281     -0.004213      0.002932
    62   Atom        0.000420     -0.003706      0.003286
    63   Atom       -0.001198     -0.003932      0.005130
    64   Atom        0.000845     -0.001852      0.001007
    65   Atom        0.004649     -0.003257     -0.001392
    66   Atom        0.003142     -0.001421     -0.001721
    67   Atom        0.001878     -0.001164     -0.000714
    68   Atom        0.001463     -0.001227     -0.000236
    69   Atom        0.005590     -0.001834     -0.003756
    70   Atom        0.002846     -0.000989     -0.001858
    71   Atom        0.004353     -0.001980     -0.002373
    72   Atom        0.006697     -0.001267     -0.005431
    73   Atom        0.016273      0.308681     -0.324953
    74   Atom       -0.038480     -0.054472      0.092952
    75   Atom       -0.027272      0.002910      0.024363
    76   Atom       -0.032948     -0.072572      0.105520
 --------------------------------------------------------
                        XY            XZ            YZ
 --------------------------------------------------------
     1   Atom        0.128095     -0.036854     -0.035599
     2   Atom        0.006558      0.011140      0.009839
     3   Atom        0.002308     -0.003342     -0.002459
     4   Atom        0.004061     -0.001667     -0.001793
     5   Atom        0.004797     -0.005462     -0.006181
     6   Atom        0.023110     -0.005522     -0.012129
     7   Atom       -0.137772     -0.037358      0.033115
     8   Atom        0.011301     -0.008700     -0.003816
     9   Atom        0.001773      0.001483     -0.000682
    10   Atom        0.002028     -0.000509     -0.000903
    11   Atom        0.000185     -0.003177      0.000365
    12   Atom        0.000061     -0.000167      0.000124
    13   Atom       -0.001680      0.001386      0.000660
    14   Atom       -0.001895     -0.000582      0.001143
    15   Atom       -0.010036     -0.011225      0.006691
    16   Atom       -0.001698     -0.003674      0.002980
    17   Atom       -0.004017     -0.001741      0.001925
    18   Atom       -0.003969     -0.005209      0.006143
    19   Atom        0.000928     -0.009114      0.064526
    20   Atom       -0.002213     -0.010821      0.005643
    21   Atom       -0.007090      0.009903     -0.006087
    22   Atom        0.006523     -0.014828     -0.005509
    23   Atom       -0.008777     -0.015887      0.006494
    24   Atom        0.005708      0.008490      0.005029
    25   Atom        0.003285      0.004048      0.004243
    26   Atom        0.003320      0.002330      0.003178
    27   Atom        0.002800      0.005413      0.008160
    28   Atom        0.001406      0.002272      0.002320
    29   Atom        0.000572      0.006051      0.000350
    30   Atom        0.000395      0.003075      0.000456
    31   Atom       -0.000578      0.008563     -0.001617
    32   Atom       -0.000555      0.003506     -0.000439
    33   Atom        0.003413      0.002000      0.000953
    34   Atom        0.001335      0.001457      0.000824
    35   Atom        0.001113      0.001108      0.000417
    36   Atom        0.002571      0.000735      0.000430
    37   Atom        0.003108     -0.005162     -0.001865
    38   Atom        0.001702     -0.000923     -0.000036
    39   Atom        0.000011     -0.001958      0.000104
    40   Atom        0.001459     -0.002656     -0.001415
    41   Atom       -0.002414     -0.000701     -0.000268
    42   Atom       -0.001978     -0.001086      0.000339
    43   Atom       -0.001181      0.000877     -0.000266
    44   Atom       -0.005246      0.000995     -0.000609
    45   Atom       -0.001928     -0.007098      0.001608
    46   Atom       -0.005517     -0.009957      0.006303
    47   Atom        0.000248     -0.006661     -0.000127
    48   Atom       -0.001176     -0.003492      0.001367
    49   Atom       -0.000355      0.006024     -0.000059
    50   Atom       -0.000484      0.003277     -0.000359
    51   Atom        0.000688      0.009287      0.001222
    52   Atom        0.000976      0.004003      0.000778
    53   Atom       -0.004069      0.001989     -0.000871
    54   Atom       -0.001435      0.001488     -0.000820
    55   Atom       -0.000957      0.000992     -0.000372
    56   Atom       -0.002667      0.000605     -0.000257
    57   Atom       -0.003775      0.004058     -0.004235
    58   Atom       -0.003548      0.002189     -0.002969
    59   Atom       -0.003927      0.005466     -0.008082
    60   Atom       -0.001764      0.002333     -0.002387
    61   Atom        0.001519     -0.007275     -0.001580
    62   Atom        0.003862     -0.009679     -0.006052
    63   Atom       -0.000201     -0.005836      0.000309
    64   Atom        0.000866     -0.003350     -0.001223
    65   Atom       -0.002748     -0.004929      0.001648
    66   Atom       -0.001581     -0.001060      0.000092
    67   Atom       -0.000026     -0.001981     -0.000087
    68   Atom       -0.001357     -0.002660      0.001383
    69   Atom        0.002306     -0.001359     -0.000074
    70   Atom        0.001883     -0.001418     -0.000460
    71   Atom        0.001282      0.000519      0.000221
    72   Atom        0.005539     -0.000106      0.000151
    73   Atom        0.012721     -0.021520      0.050461
    74   Atom       -0.002855      0.005546     -0.005496
    75   Atom        0.000561      0.003195      0.016337
    76   Atom       -0.001356      0.007778     -0.008219
 --------------------------------------------------------


 ---------------------------------------------------------------------------------
              Anisotropic Spin Dipole Couplings in Principal Axis System
 ---------------------------------------------------------------------------------

       Atom             a.u.   MegaHertz   Gauss  10(-4) cm-1        Axes

              Baa    -0.0966   -20.883    -7.452    -6.966 -0.4371  0.7270  0.5296
     1 P(31)  Bbb    -0.0847   -18.309    -6.533    -6.107  0.4605 -0.3249  0.8260
              Bcc     0.1813    39.192    13.985    13.073  0.7726  0.6049 -0.1928
 
              Baa    -0.1249    -4.817    -1.719    -1.607  0.9034 -0.0049 -0.4287
     2 N(14)  Bbb    -0.0966    -3.727    -1.330    -1.243  0.4282 -0.0368  0.9029
              Bcc     0.2215     8.544     3.049     2.850  0.0202  0.9993  0.0311
 
              Baa    -0.0113    -1.512    -0.540    -0.504  0.2256  0.0960  0.9695
     3 C(13)  Bbb     0.0017     0.234     0.083     0.078  0.9037 -0.3923 -0.1714
              Bcc     0.0095     1.278     0.456     0.426  0.3638  0.9148 -0.1753
 
              Baa    -0.0039    -2.103    -0.750    -0.701  0.1246  0.2226  0.9669
     4 H(1)   Bbb    -0.0024    -1.279    -0.456    -0.427  0.7129 -0.6979  0.0687
              Bcc     0.0063     3.382     1.207     1.128  0.6901  0.6808 -0.2457
 
              Baa    -0.0060    -3.199    -1.141    -1.067  0.2913  0.5574  0.7774
     5 H(1)   Bbb    -0.0050    -2.682    -0.957    -0.895  0.7963 -0.5916  0.1258
              Bcc     0.0110     5.881     2.098     1.962 -0.5301 -0.5825  0.6163
 
              Baa    -0.0299     2.164     0.772     0.722 -0.1113  0.4795  0.8705
     6 O(17)  Bbb    -0.0111     0.805     0.287     0.269 -0.5124  0.7228 -0.4637
              Bcc     0.0410    -2.970    -1.060    -0.991  0.8515  0.4976 -0.1652
 
              Baa    -0.0996   -21.531    -7.683    -7.182  0.4209  0.6927 -0.5857
     7 P(31)  Bbb    -0.0942   -20.368    -7.268    -6.794  0.4812  0.3769  0.7915
              Bcc     0.1938    41.899    14.951    13.976  0.7690 -0.6149 -0.1746
 
              Baa    -0.0185    -2.487    -0.887    -0.830  0.3696 -0.0213  0.9290
     8 C(13)  Bbb    -0.0028    -0.376    -0.134    -0.125  0.7023 -0.6482 -0.2942
              Bcc     0.0213     2.863     1.022     0.955  0.6084  0.7611 -0.2246
 
              Baa    -0.0060    -0.803    -0.287    -0.268  0.8742 -0.1343 -0.4665
     9 C(13)  Bbb    -0.0022    -0.296    -0.106    -0.099  0.4680 -0.0225  0.8834
              Bcc     0.0082     1.099     0.392     0.367  0.1291  0.9907 -0.0432
 
              Baa    -0.0020    -1.076    -0.384    -0.359  0.3088  0.0504  0.9498
    10 H(1)   Bbb    -0.0017    -0.915    -0.326    -0.305  0.8534 -0.4555 -0.2533
              Bcc     0.0037     1.991     0.711     0.664  0.4199  0.8888 -0.1836
 
              Baa    -0.0076    -1.015    -0.362    -0.338  0.4359 -0.0281  0.8995
    11 C(13)  Bbb     0.0005     0.073     0.026     0.024  0.8999 -0.0012 -0.4361
              Bcc     0.0070     0.942     0.336     0.314  0.0133  0.9996  0.0248
 
              Baa    -0.0013    -0.676    -0.241    -0.225  0.3838 -0.0416  0.9225
    12 H(1)   Bbb    -0.0008    -0.421    -0.150    -0.140  0.9232 -0.0029 -0.3842
              Bcc     0.0021     1.097     0.391     0.366  0.0187  0.9991  0.0373
 
              Baa    -0.0059    -0.797    -0.284    -0.266  0.8906  0.1287 -0.4363
    13 C(13)  Bbb    -0.0022    -0.299    -0.107    -0.100  0.4383  0.0141  0.8987
              Bcc     0.0082     1.095     0.391     0.365 -0.1218  0.9916  0.0439
 
              Baa    -0.0020    -1.076    -0.384    -0.359  0.2869 -0.1183  0.9506
    14 H(1)   Bbb    -0.0017    -0.904    -0.323    -0.302  0.8720  0.4430 -0.2081
              Bcc     0.0037     1.981     0.707     0.661 -0.3965  0.8887  0.2303
 
              Baa    -0.0187    -2.512    -0.896    -0.838  0.4775 -0.0362  0.8779
    15 C(13)  Bbb    -0.0028    -0.376    -0.134    -0.125  0.6783  0.6503 -0.3421
              Bcc     0.0215     2.889     1.031     0.964 -0.5585  0.7588  0.3350
 
              Baa    -0.0113    -1.513    -0.540    -0.505  0.2647 -0.1206  0.9568
    16 C(13)  Bbb     0.0015     0.204     0.073     0.068  0.9253  0.3111 -0.2168
              Bcc     0.0098     1.309     0.467     0.437 -0.2715  0.9427  0.1939
 
              Baa    -0.0040    -2.139    -0.763    -0.714  0.1278 -0.2371  0.9630
    17 H(1)   Bbb    -0.0024    -1.256    -0.448    -0.419  0.7213  0.6887  0.0739
              Bcc     0.0064     3.396     1.212     1.133 -0.6807  0.6852  0.2590
 
              Baa    -0.0059    -3.162    -1.128    -1.055  0.3149 -0.5824  0.7495
    18 H(1)   Bbb    -0.0045    -2.384    -0.851    -0.795  0.8056  0.5815  0.1134
              Bcc     0.0104     5.546     1.979     1.850 -0.5019  0.5681  0.6523
 
              Baa    -0.5708    13.988     4.991     4.666  0.0118 -0.0690  0.9975
    19 Ru(99) Bbb     0.2045    -5.011    -1.788    -1.671  0.9999 -0.0010 -0.0119
              Bcc     0.3664    -8.977    -3.203    -2.994  0.0018  0.9976  0.0690
 
              Baa    -0.0149    -7.940    -2.833    -2.649  0.9458  0.2230  0.2361
    20 H(1)   Bbb    -0.0123    -6.553    -2.338    -2.186 -0.1753  0.9625 -0.2069
              Bcc     0.0272    14.494     5.172     4.835 -0.2734  0.1543  0.9494
 
              Baa    -0.0087    -1.164    -0.415    -0.388  0.1349  0.8806  0.4543
    21 C(13)  Bbb    -0.0078    -1.050    -0.375    -0.350  0.6959  0.2422 -0.6760
              Bcc     0.0165     2.214     0.790     0.739  0.7053 -0.4073  0.5802
 
              Baa    -0.0130    -1.746    -0.623    -0.583  0.3580  0.4720  0.8057
    22 C(13)  Bbb    -0.0101    -1.359    -0.485    -0.453 -0.4504  0.8431 -0.2938
              Bcc     0.0231     3.105     1.108     1.036  0.8179  0.2577 -0.5144
 
              Baa    -0.0151    -2.021    -0.721    -0.674  0.2765 -0.5171  0.8100
    23 C(13)  Bbb    -0.0119    -1.592    -0.568    -0.531  0.4721  0.8073  0.3542
              Bcc     0.0269     3.612     1.289     1.205  0.8371 -0.2845 -0.4673
 
              Baa    -0.0072    -0.966    -0.345    -0.322  0.0327  0.8097 -0.5859
    24 C(13)  Bbb    -0.0066    -0.890    -0.318    -0.297  0.7077 -0.4327 -0.5585
              Bcc     0.0138     1.856     0.662     0.619  0.7058  0.3963  0.5872
 
              Baa    -0.0042    -0.567    -0.202    -0.189 -0.3662 -0.5174  0.7734
    25 C(13)  Bbb    -0.0035    -0.475    -0.170    -0.159  0.7568 -0.6492 -0.0760
              Bcc     0.0078     1.043     0.372     0.348  0.5414  0.5575  0.6293
 
              Baa    -0.0036    -1.896    -0.677    -0.633 -0.2953 -0.3401  0.8928
    26 H(1)   Bbb    -0.0027    -1.449    -0.517    -0.483  0.7996 -0.5994  0.0362
              Bcc     0.0063     3.346     1.194     1.116  0.5228  0.7246  0.4490
 
              Baa    -0.0073    -3.880    -1.384    -1.294 -0.4870 -0.6018  0.6329
    27 H(1)   Bbb    -0.0054    -2.897    -1.034    -0.966  0.8020 -0.5952  0.0511
              Bcc     0.0127     6.776     2.418     2.260  0.3460  0.5325  0.7725
 
              Baa    -0.0023    -1.225    -0.437    -0.409 -0.3557 -0.6382  0.6827
    28 H(1)   Bbb    -0.0019    -1.024    -0.365    -0.342  0.7922 -0.5935 -0.1421
              Bcc     0.0042     2.249     0.802     0.750  0.4959  0.4903  0.7167
 
              Baa    -0.0042    -0.565    -0.201    -0.188 -0.6385  0.3505  0.6851
    29 C(13)  Bbb    -0.0038    -0.516    -0.184    -0.172  0.1953  0.9349 -0.2963
              Bcc     0.0080     1.080     0.385     0.360  0.7444  0.0554  0.6654
 
              Baa    -0.0022    -1.167    -0.417    -0.389  0.7830 -0.1288 -0.6086
    30 H(1)   Bbb    -0.0020    -1.065    -0.380    -0.355  0.0405  0.9868 -0.1566
              Bcc     0.0042     2.232     0.796     0.745  0.6208  0.0979  0.7779
 
              Baa    -0.0066    -3.523    -1.257    -1.175  0.7312 -0.3087 -0.6083
    31 H(1)   Bbb    -0.0048    -2.548    -0.909    -0.850  0.3035  0.9458 -0.1152
              Bcc     0.0114     6.071     2.166     2.025  0.6109 -0.1004  0.7853
 
              Baa    -0.0027    -1.462    -0.522    -0.488 -0.5070  0.2043  0.8374
    32 H(1)   Bbb    -0.0024    -1.264    -0.451    -0.421  0.1877  0.9743 -0.1241
              Bcc     0.0051     2.725     0.972     0.909  0.8413 -0.0943  0.5323
 
              Baa    -0.0032    -0.429    -0.153    -0.143 -0.2366 -0.0652  0.9694
    33 C(13)  Bbb    -0.0030    -0.409    -0.146    -0.136 -0.4228  0.9052 -0.0423
              Bcc     0.0062     0.838     0.299     0.280  0.8748  0.4199  0.2417
 
              Baa    -0.0015    -0.787    -0.281    -0.263 -0.2966  0.9087 -0.2939
    34 H(1)   Bbb    -0.0013    -0.676    -0.241    -0.225 -0.5470  0.0906  0.8322
              Bcc     0.0027     1.463     0.522     0.488  0.7829  0.4075  0.4701
 
              Baa    -0.0019    -1.033    -0.369    -0.345 -0.0099 -0.6831  0.7303
    35 H(1)   Bbb    -0.0016    -0.870    -0.310    -0.290 -0.3186  0.6944  0.6452
              Bcc     0.0036     1.903     0.679     0.635  0.9478  0.2263  0.2245
 
              Baa    -0.0020    -1.045    -0.373    -0.349 -0.3951  0.3291  0.8576
    36 H(1)   Bbb    -0.0018    -0.952    -0.340    -0.317 -0.4408  0.7512 -0.4914
              Bcc     0.0037     1.997     0.712     0.666  0.8059  0.5722  0.1517
 
              Baa    -0.0046    -0.619    -0.221    -0.207  0.0706  0.7907  0.6082
    37 C(13)  Bbb    -0.0043    -0.578    -0.206    -0.193  0.5363 -0.5441  0.6452
              Bcc     0.0089     1.198     0.427     0.400  0.8411  0.2806 -0.4624
 
              Baa    -0.0022    -1.180    -0.421    -0.394  0.3149 -0.6112  0.7261
    38 H(1)   Bbb    -0.0017    -0.910    -0.325    -0.304 -0.1270  0.7310  0.6704
              Bcc     0.0039     2.090     0.746     0.697  0.9406  0.3033 -0.1526
 
              Baa    -0.0019    -1.002    -0.358    -0.334  0.4360 -0.1454  0.8881
    39 H(1)   Bbb    -0.0012    -0.639    -0.228    -0.213  0.0718  0.9893  0.1268
              Bcc     0.0031     1.641     0.586     0.547  0.8971 -0.0085 -0.4418
 
              Baa    -0.0025    -1.308    -0.467    -0.436  0.2726  0.5970  0.7545
    40 H(1)   Bbb    -0.0018    -0.953    -0.340    -0.318 -0.5818  0.7269 -0.3649
              Bcc     0.0042     2.262     0.807     0.754  0.7663  0.3395 -0.5455
 
              Baa    -0.0039    -0.527    -0.188    -0.176  0.1407  0.2739  0.9514
    41 C(13)  Bbb    -0.0023    -0.314    -0.112    -0.105  0.2555  0.9184 -0.3022
              Bcc     0.0063     0.841     0.300     0.281  0.9565 -0.2856 -0.0593
 
              Baa    -0.0023    -1.210    -0.432    -0.404  0.2425  0.1187  0.9629
    42 H(1)   Bbb    -0.0018    -0.945    -0.337    -0.315  0.3358  0.9209 -0.1981
              Bcc     0.0040     2.155     0.769     0.719  0.9102 -0.3714 -0.1834
 
              Baa    -0.0024    -1.276    -0.455    -0.426 -0.0340  0.4667  0.8838
    43 H(1)   Bbb    -0.0021    -1.143    -0.408    -0.381  0.2235  0.8654 -0.4484
              Bcc     0.0045     2.419     0.863     0.807  0.9741 -0.1823  0.1337
 
              Baa    -0.0053    -2.804    -1.001    -0.935 -0.0371  0.1053  0.9937
    44 H(1)   Bbb    -0.0040    -2.118    -0.756    -0.707  0.4523  0.8885 -0.0773
              Bcc     0.0092     4.922     1.756     1.642  0.8911 -0.4466  0.0806
 
              Baa    -0.0052    -0.700    -0.250    -0.233  0.3545  0.9244  0.1411
    45 C(13)  Bbb    -0.0047    -0.628    -0.224    -0.209  0.6062 -0.3421  0.7180
              Bcc     0.0099     1.328     0.474     0.443  0.7119 -0.1689 -0.6816
 
              Baa    -0.0086    -4.605    -1.643    -1.536  0.4842 -0.4199  0.7676
    46 H(1)   Bbb    -0.0068    -3.612    -1.289    -1.205  0.5776  0.8124  0.0801
              Bcc     0.0154     8.217     2.932     2.741  0.6573 -0.4046 -0.6359
 
              Baa    -0.0049    -2.615    -0.933    -0.872 -0.2695  0.9462 -0.1789
    47 H(1)   Bbb    -0.0045    -2.398    -0.856    -0.800  0.7572  0.3230  0.5678
              Bcc     0.0094     5.013     1.789     1.672 -0.5951 -0.0175  0.8035
 
              Baa    -0.0027    -1.453    -0.519    -0.485  0.4117 -0.5972  0.6884
    48 H(1)   Bbb    -0.0022    -1.193    -0.426    -0.398  0.5590  0.7621  0.3268
              Bcc     0.0050     2.646     0.944     0.883  0.7198 -0.2503 -0.6476
 
              Baa    -0.0042    -0.568    -0.203    -0.189  0.4891  0.7022 -0.5174
    49 C(13)  Bbb    -0.0038    -0.516    -0.184    -0.172 -0.4565  0.7116  0.5341
              Bcc     0.0081     1.084     0.387     0.362  0.7432 -0.0251  0.6686
 
              Baa    -0.0023    -1.233    -0.440    -0.411  0.5533  0.7091 -0.4371
    50 H(1)   Bbb    -0.0021    -1.122    -0.400    -0.374 -0.4727  0.6993  0.5362
              Bcc     0.0044     2.355     0.840     0.785  0.6859 -0.0901  0.7221
 
              Baa    -0.0066    -3.522    -1.257    -1.175  0.5259  0.6973 -0.4871
    51 H(1)   Bbb    -0.0061    -3.277    -1.169    -1.093 -0.5778  0.7131  0.3970
              Bcc     0.0127     6.799     2.426     2.268  0.6242  0.0726  0.7779
 
              Baa    -0.0033    -1.772    -0.632    -0.591 -0.4157 -0.3941  0.8197
    52 H(1)   Bbb    -0.0028    -1.507    -0.538    -0.503 -0.3100  0.9087  0.2796
              Bcc     0.0061     3.279     1.170     1.094  0.8550  0.1379  0.4999
 
              Baa    -0.0039    -0.521    -0.186    -0.174 -0.2030  0.0143  0.9791
    53 C(13)  Bbb    -0.0038    -0.506    -0.181    -0.169  0.3912  0.9178  0.0677
              Bcc     0.0077     1.027     0.366     0.343  0.8976 -0.3968  0.1919
 
              Baa    -0.0016    -0.870    -0.310    -0.290  0.3295  0.9177  0.2220
    54 H(1)   Bbb    -0.0013    -0.685    -0.244    -0.228 -0.5015 -0.0291  0.8647
              Bcc     0.0029     1.555     0.555     0.519  0.8000 -0.3962  0.4506
 
              Baa    -0.0020    -1.089    -0.389    -0.363 -0.0197  0.6641  0.7474
    55 H(1)   Bbb    -0.0017    -0.892    -0.318    -0.298  0.2645  0.7243 -0.6367
              Bcc     0.0037     1.981     0.707     0.661  0.9642 -0.1852  0.1899
 
              Baa    -0.0021    -1.097    -0.391    -0.366 -0.4790 -0.5654  0.6714
    56 H(1)   Bbb    -0.0018    -0.957    -0.341    -0.319  0.3131  0.6046  0.7325
              Bcc     0.0038     2.054     0.733     0.685  0.8201 -0.5611  0.1126
 
              Baa    -0.0043    -0.573    -0.204    -0.191 -0.3294  0.4978  0.8023
    57 C(13)  Bbb    -0.0038    -0.508    -0.181    -0.169  0.7581  0.6459 -0.0895
              Bcc     0.0081     1.080     0.385     0.360  0.5628 -0.5788  0.5902
 
              Baa    -0.0035    -1.885    -0.673    -0.629 -0.2669  0.3129  0.9115
    58 H(1)   Bbb    -0.0028    -1.490    -0.532    -0.497  0.8003  0.5990  0.0287
              Bcc     0.0063     3.375     1.204     1.126 -0.5370  0.7371 -0.4103
 
              Baa    -0.0068    -3.654    -1.304    -1.219  0.7404 -0.2823 -0.6100
    59 H(1)   Bbb    -0.0060    -3.209    -1.145    -1.071  0.5590  0.7625  0.3256
              Bcc     0.0129     6.863     2.449     2.289  0.3732 -0.5821  0.7224
 
              Baa    -0.0023    -1.235    -0.441    -0.412 -0.1103  0.7450  0.6579
    60 H(1)   Bbb    -0.0021    -1.128    -0.402    -0.376  0.8439  0.4199 -0.3340
              Bcc     0.0044     2.362     0.843     0.788  0.5250 -0.5184  0.6750
 
              Baa    -0.0052    -0.701    -0.250    -0.234  0.7523 -0.1168  0.6484
    61 C(13)  Bbb    -0.0045    -0.610    -0.218    -0.204 -0.0143  0.9810  0.1934
              Bcc     0.0098     1.311     0.468     0.437 -0.6587 -0.1548  0.7364
 
              Baa    -0.0084    -4.490    -1.602    -1.498  0.5803  0.4205  0.6975
    62 H(1)   Bbb    -0.0060    -3.209    -1.145    -1.070 -0.5559  0.8304 -0.0381
              Bcc     0.0144     7.698     2.747     2.568 -0.5952 -0.3656  0.7156
 
              Baa    -0.0047    -2.493    -0.890    -0.832  0.8593  0.0205  0.5110
    63 H(1)   Bbb    -0.0039    -2.104    -0.751    -0.702 -0.0026  0.9994 -0.0357
              Bcc     0.0086     4.597     1.640     1.533 -0.5114  0.0294  0.8588
 
              Baa    -0.0026    -1.369    -0.488    -0.456  0.5333  0.5102  0.6748
    64 H(1)   Bbb    -0.0021    -1.094    -0.390    -0.365 -0.5092  0.8306 -0.2256
              Bcc     0.0046     2.463     0.879     0.821 -0.6755 -0.2233  0.7027
 
              Baa    -0.0042    -0.569    -0.203    -0.190  0.1915 -0.6688  0.7183
    65 C(13)  Bbb    -0.0041    -0.544    -0.194    -0.182  0.5080  0.6938  0.5105
              Bcc     0.0083     1.113     0.397     0.371  0.8398 -0.2672 -0.4726
 
              Baa    -0.0021    -1.142    -0.407    -0.381  0.3305  0.6376  0.6959
    66 H(1)   Bbb    -0.0017    -0.902    -0.322    -0.301  0.0817  0.7152 -0.6941
              Bcc     0.0038     2.044     0.729     0.682  0.9403 -0.2863 -0.1843
 
              Baa    -0.0018    -0.959    -0.342    -0.320  0.4706  0.1387  0.8714
    67 H(1)   Bbb    -0.0012    -0.614    -0.219    -0.205 -0.0699  0.9903 -0.1198
              Bcc     0.0029     1.574     0.562     0.525  0.8796  0.0046 -0.4758
 
              Baa    -0.0024    -1.266    -0.452    -0.422  0.3567 -0.5169  0.7782
    68 H(1)   Bbb    -0.0017    -0.918    -0.328    -0.306  0.5576  0.7861  0.2665
              Bcc     0.0041     2.185     0.780     0.729  0.7495 -0.3389 -0.5687
 
              Baa    -0.0040    -0.535    -0.191    -0.179  0.1749 -0.1537  0.9725
    69 C(13)  Bbb    -0.0024    -0.326    -0.116    -0.109 -0.2406  0.9511  0.1936
              Bcc     0.0064     0.862     0.307     0.287  0.9547  0.2679 -0.1294
 
              Baa    -0.0023    -1.205    -0.430    -0.402  0.3016 -0.1040  0.9478
    70 H(1)   Bbb    -0.0017    -0.926    -0.330    -0.309 -0.3179  0.9262  0.2028
              Bcc     0.0040     2.131     0.760     0.711  0.8989  0.3624 -0.2463
 
              Baa    -0.0025    -1.320    -0.471    -0.440  0.0144 -0.4398  0.8980
    71 H(1)   Bbb    -0.0022    -1.159    -0.414    -0.387 -0.2068  0.8773  0.4330
              Bcc     0.0046     2.479     0.885     0.827  0.9783  0.1919  0.0784
 
              Baa    -0.0055    -2.911    -1.039    -0.971  0.0628 -0.1188  0.9909
    72 H(1)   Bbb    -0.0041    -2.178    -0.777    -0.726 -0.4519  0.8819  0.1343
              Bcc     0.0095     5.089     1.816     1.697  0.8899  0.4562 -0.0017
 
              Baa    -0.3304    23.908     8.531     7.975  0.0647 -0.0798  0.9947
    73 O(17)  Bbb     0.0173    -1.253    -0.447    -0.418  0.9972 -0.0319 -0.0674
              Bcc     0.3131   -22.654    -8.084    -7.557  0.0371  0.9963  0.0775
 
              Baa    -0.0551    -7.394    -2.638    -2.466  0.1593  0.9868  0.0307
    74 C(13)  Bbb    -0.0383    -5.139    -1.834    -1.714  0.9863 -0.1577 -0.0483
              Bcc     0.0934    12.533     4.472     4.181  0.0428 -0.0379  0.9984
 
              Baa    -0.0275   -14.660    -5.231    -4.890  0.9976  0.0176 -0.0670
    75 H(1)   Bbb    -0.0059    -3.126    -1.115    -1.043 -0.0472  0.8808 -0.4711
              Bcc     0.0333    17.786     6.347     5.933  0.0507  0.4732  0.8795
 
              Baa    -0.0730     5.280     1.884     1.761  0.0251  0.9987  0.0449
    76 O(17)  Bbb    -0.0334     2.414     0.861     0.805  0.9981 -0.0225 -0.0572
              Bcc     0.1063    -7.695    -2.746    -2.567  0.0561 -0.0462  0.9974
 

 ---------------------------------------------------------------------------------

 Unable to Open any file for archive entry.
 1\1\GINC-NODE108\SP\UB3LYP\def2SVP\C24H45N1O3P2Ru1(3)\DO57CIG\16-Jan-2
 025\0\\# ub3lyp scrf=(smd,solvent=water) def2svp empiricaldispersion=g
 d3bj int=ultrafine scf=xqc guess=read\\A_Ru_Cis_DFT_B3LYP_def2svp_smd_
 water_T_Opt_3MLCT_from_3MLCT_trans\\0,3\P,0,2.412868,-0.094449,-0.1442
 65\N,0,-0.014745,1.67011,-0.067832\C,0,2.18893,1.497128,-1.074514\H,0,
 3.113566,2.087781,-1.109246\H,0,1.953738,1.189827,-2.107226\O,0,-0.142
 639,-1.080228,-2.140182\P,0,-2.428322,-0.088089,0.052854\C,0,1.054182,
 2.32638,-0.534279\C,0,1.114542,3.72489,-0.504876\H,0,1.992958,4.241783
 ,-0.894696\C,0,0.04121,4.42916,0.042209\H,0,0.062461,5.520526,0.084666
 \C,0,-1.057448,3.726797,0.538424\H,0,-1.91242,4.245906,0.974803\C,0,-1
 .05312,2.328339,0.459942\C,0,-2.212963,1.510172,0.968938\H,0,-3.132233
 ,2.11112,0.970919\H,0,-2.011577,1.219289,2.014087\Ru,0,-0.01216227,-1.
 01070848,-0.05203733\H,0,0.692632,-1.43269,-2.464648\C,0,-3.251867,0.4
 14832,-1.597843\C,0,-3.689242,-1.026507,1.141738\C,0,3.672968,-1.03308
 4,-1.235163\C,0,3.23895,0.41126,1.50261\C,0,2.316777,1.435151,2.194192
 \H,0,2.315062,2.400477,1.671025\H,0,1.27969,1.092861,2.284222\H,0,2.70
 2246,1.612888,3.211336\C,0,3.382488,-0.831614,2.403768\H,0,3.521161,-0
 .503169,3.446828\H,0,2.501202,-1.483887,2.374833\H,0,4.256058,-1.43457
 8,2.131644\C,0,4.614888,1.069055,1.328299\H,0,4.960743,1.42544,2.3136\
 H,0,5.368667,0.364833,0.953429\H,0,4.578807,1.940314,0.657466\C,0,4.74
 511,-0.114754,-1.842777\H,0,5.322707,0.432533,-1.089586\H,0,5.451726,-
 0.73695,-2.41789\H,0,4.308508,0.612477,-2.542041\C,0,4.330706,-2.15353
 1,-0.417947\H,0,4.873638,-2.822089,-1.106183\H,0,5.057683,-1.766837,0.
 307096\H,0,3.584063,-2.758676,0.11881\C,0,2.906494,-1.687136,-2.394227
 \H,0,2.185308,-2.432688,-2.030052\H,0,2.39151,-0.942841,-3.019376\H,0,
 3.627573,-2.211705,-3.042014\C,0,-3.305865,-0.812024,-2.526736\H,0,-3.
 622781,-0.480335,-3.530174\H,0,-2.318534,-1.282973,-2.614999\H,0,-4.02
 9577,-1.561929,-2.187181\C,0,-4.659288,1.003095,-1.433168\H,0,-5.00036
 6,1.37308,-2.415293\H,0,-5.388741,0.25561,-1.095253\H,0,-4.677611,1.85
 4828,-0.736724\C,0,-2.365234,1.487083,-2.258986\H,0,-2.389092,2.438805
 ,-1.710576\H,0,-1.322309,1.164388,-2.356179\H,0,-2.758542,1.681744,-3.
 270545\C,0,-2.923237,-1.658418,2.312524\H,0,-2.185951,-2.395359,1.9665
 45\H,0,-2.408753,-0.907964,2.926963\H,0,-3.645996,-2.180454,2.961255\C
 ,0,-4.776892,-0.114107,1.731119\H,0,-5.362472,0.410039,0.968029\H,0,-5
 .474454,-0.736122,2.317381\H,0,-4.352501,0.632985,2.417059\C,0,-4.3270
 81,-2.163039,0.330299\H,0,-4.882085,-2.821634,1.018632\H,0,-5.039442,-
 1.794447,-0.418833\H,0,-3.566315,-2.775045,-0.178514\O,0,0.02573772,-3
 .59717366,-0.31426137\C,0,0.05929373,-1.04636848,1.76684967\H,0,-0.037
 62528,-3.59926166,-1.28506937\O,0,0.12707673,-1.08763748,2.93618267\\V
 ersion=ES64L-G16RevC.02\State=3-A\HF=-1998.9294451\S2=2.022773\S2-1=0.
 \S2A=2.00029\RMSD=1.150e-09\Dipole=0.8547949,6.6070856,0.1911778\Quadr
 upole=32.4133502,-19.1532302,-13.26012,-1.406344,-8.9333557,2.6847718\
 PG=C01 [X(C24H45N1O3P2Ru1)]\\@
 The archive entry for this job was punched.


 A MUSTACHE HAIR ACROSS A CHIP IS LIKE A REDWOOD
 TREE FALLING THROUGH A HOUSING PROJECT.
 - AN IBM MANAGER IN EAST FISHKILL, NEW YORK
   AS QUOTED IN "FROM SANDS TO CIRCUITS", IBM INNOVATION JANUARY 1985.
 Job cpu time:       0 days  2 hours 45 minutes 15.6 seconds.
 Elapsed time:       0 days  0 hours  7 minutes 30.7 seconds.
 File lengths (MBytes):  RWF=    827 Int=      0 D2E=      0 Chk=     67 Scr=      1
 Normal termination of Gaussian 16 at Thu Jan 16 18:22:36 2025.
