 Entering Gaussian System, Link 0=g16
 Input=A_Ru_Cis_straight_CO_DFT_B3LYP_def2SVP_smd_water_T_3MC_freezedScan_2_8.gjf
 Output=A_Ru_Cis_straight_CO_DFT_B3LYP_def2SVP_smd_water_T_3MC_freezedScan_2_8.log
 Initial command:
 /cluster/apps/gaussian/g16_c02/g16/l1.exe "/beegfs/do57cig/gauss2178645/Gau-97494.inp" -scrdir="/beegfs/do57cig/gauss2178645/"
 Default CPUs for threads: 0-23
 Default is to use a total of  24 processors:
                               24 via shared-memory
                                1 via Linda
 Entering Link 1 = /cluster/apps/gaussian/g16_c02/g16/l1.exe PID=     97495.
  
 Copyright (c) 1988-2021, Gaussian, Inc.  All Rights Reserved.
  
 This is part of the Gaussian(R) 16 program.  It is based on
 the Gaussian(R) 09 system (copyright 2009, Gaussian, Inc.),
 the Gaussian(R) 03 system (copyright 2003, Gaussian, Inc.),
 the Gaussian(R) 98 system (copyright 1998, Gaussian, Inc.),
 the Gaussian(R) 94 system (copyright 1995, Gaussian, Inc.),
 the Gaussian 92(TM) system (copyright 1992, Gaussian, Inc.),
 the Gaussian 90(TM) system (copyright 1990, Gaussian, Inc.),
 the Gaussian 88(TM) system (copyright 1988, Gaussian, Inc.),
 the Gaussian 86(TM) system (copyright 1986, Carnegie Mellon
 University), and the Gaussian 82(TM) system (copyright 1983,
 Carnegie Mellon University). Gaussian is a federally registered
 trademark of Gaussian, Inc.
  
 This software contains proprietary and confidential information,
 including trade secrets, belonging to Gaussian, Inc.
  
 This software is provided under written license and may be
 used, copied, transmitted, or stored only in accord with that
 written license.
  
 The following legend is applicable only to US Government
 contracts under FAR:
  
                    RESTRICTED RIGHTS LEGEND
  
 Use, reproduction and disclosure by the US Government is
 subject to restrictions as set forth in subparagraphs (a)
 and (c) of the Commercial Computer Software - Restricted
 Rights clause in FAR 52.227-19.
  
 Gaussian, Inc.
 340 Quinnipiac St., Bldg. 40, Wallingford CT 06492
  
  
 ---------------------------------------------------------------
 Warning -- This program may not be used in any manner that
 competes with the business of Gaussian, Inc. or will provide
 assistance to any competitor of Gaussian, Inc.  The licensee
 of this program is prohibited from giving any competitor of
 Gaussian, Inc. access to this program.  By using this program,
 the user acknowledges that Gaussian, Inc. is engaged in the
 business of creating and licensing software in the field of
 computational chemistry and represents and warrants to the
 licensee that it is not a competitor of Gaussian, Inc. and that
 it will not use this program in any manner prohibited above.
 ---------------------------------------------------------------
  

 Cite this work as:
 Gaussian 16, Revision C.02,
 M. J. Frisch, G. W. Trucks, H. B. Schlegel, G. E. Scuseria, 
 M. A. Robb, J. R. Cheeseman, G. Scalmani, V. Barone, 
 G. A. Petersson, H. Nakatsuji, X. Li, M. Caricato, A. V. Marenich, 
 J. Bloino, B. G. Janesko, R. Gomperts, B. Mennucci, H. P. Hratchian, 
 J. V. Ortiz, A. F. Izmaylov, J. L. Sonnenberg, D. Williams-Young, 
 F. Ding, F. Lipparini, F. Egidi, J. Goings, B. Peng, A. Petrone, 
 T. Henderson, D. Ranasinghe, V. G. Zakrzewski, J. Gao, N. Rega, 
 G. Zheng, W. Liang, M. Hada, M. Ehara, K. Toyota, R. Fukuda, 
 J. Hasegawa, M. Ishida, T. Nakajima, Y. Honda, O. Kitao, H. Nakai, 
 T. Vreven, K. Throssell, J. A. Montgomery, Jr., J. E. Peralta, 
 F. Ogliaro, M. J. Bearpark, J. J. Heyd, E. N. Brothers, K. N. Kudin, 
 V. N. Staroverov, T. A. Keith, R. Kobayashi, J. Normand, 
 K. Raghavachari, A. P. Rendell, J. C. Burant, S. S. Iyengar, 
 J. Tomasi, M. Cossi, J. M. Millam, M. Klene, C. Adamo, R. Cammi, 
 J. W. Ochterski, R. L. Martin, K. Morokuma, O. Farkas, 
 J. B. Foresman, and D. J. Fox, Gaussian, Inc., Wallingford CT, 2019.
 
 ******************************************
 Gaussian 16:  ES64L-G16RevC.02  7-Dec-2021
                16-Jan-2025 
 ******************************************
 %chk=A_Ru_Cis_straight_CO_DFT_B3LYP_def2SVP_smd_water_T_3MC_freezedScan_2_8.chk
 %Oldchk=A_Ru_Cis_straight_CO_DFT_B3LYP_def2SVP_smd_water_T_3MC_tweaked_geom.chk
 SetSPE:  set environment variable "OMP_PROC_BIND" = "true"
 SetSPE:  set environment variable "OMP_PLACES" = "{0},{1},{2},{3},{4},{5},{6},{7},{8},{9},{10},{11},{12},{13},{14},{15},{16},{17},{18},{19},{20},{21},{22},{23}"
 Copying data from "A_Ru_Cis_straight_CO_DFT_B3LYP_def2SVP_smd_water_T_3MC_tweaked_geom.chk" to current chk file "A_Ru_Cis_straight_CO_DFT_B3LYP_def2SVP_smd_water_T_3MC_freezedScan_2_8.chk"
 IOpt=  2 FromEx=T IUOpen= 4 IOptOp= 5 NList=   0 IFRang= 0 IUIn= 4 IUOut= 2.
 ----------------------------------------------------------------------
 # ub3lyp scrf=(smd,solvent=water) def2svp empiricaldispersion=gd3bj in
 t=ultrafine scf=xqc guess=read
 ----------------------------------------------------------------------
 1/38=1,172=1/1;
 2/12=2,17=6,18=5,40=1/2;
 3/5=43,7=101,11=2,25=1,30=1,70=32201,72=1,74=-5,75=-5,116=2,124=41/1,2,3;
 4/5=1/1;
 5/5=2,8=3,13=1,38=6,53=1/2,8;
 6/7=2,8=2,9=2,10=2,28=1/1;
 99/5=1,9=1/99;
 -----------------------------------------------------------------
 A_Ru_Cis_DFT_B3LYP_def2svp_smd_water_T_Opt_3MLCT_from_3MLCT_trans
 -----------------------------------------------------------------
 Symbolic Z-matrix:
 Charge =  0 Multiplicity = 3
 P                     2.41287  -0.09445  -0.14427 
 N                    -0.01475   1.67011  -0.06783 
 C                     2.18893   1.49713  -1.07451 
 H                     3.11357   2.08778  -1.10925 
 H                     1.95374   1.18983  -2.10723 
 O                    -0.14264  -1.08023  -2.14018 
 P                    -2.42832  -0.08809   0.05285 
 C                     1.05418   2.32638  -0.53428 
 C                     1.11454   3.72489  -0.50488 
 H                     1.99296   4.24178  -0.8947 
 C                     0.04121   4.42916   0.04221 
 H                     0.06246   5.52053   0.08467 
 C                    -1.05745   3.7268    0.53842 
 H                    -1.91242   4.24591   0.9748 
 C                    -1.05312   2.32834   0.45994 
 C                    -2.21296   1.51017   0.96894 
 H                    -3.13223   2.11112   0.97092 
 H                    -2.01158   1.21929   2.01409 
 Ru                   -0.01216  -1.01071  -0.05204 
 H                     0.69263  -1.43269  -2.46465 
 C                    -3.25187   0.41483  -1.59784 
 C                    -3.68924  -1.02651   1.14174 
 C                     3.67297  -1.03308  -1.23516 
 C                     3.23895   0.41126   1.50261 
 C                     2.31678   1.43515   2.19419 
 H                     2.31506   2.40048   1.67103 
 H                     1.27969   1.09286   2.28422 
 H                     2.70225   1.61289   3.21134 
 C                     3.38249  -0.83161   2.40377 
 H                     3.52116  -0.50317   3.44683 
 H                     2.5012   -1.48389   2.37483 
 H                     4.25606  -1.43458   2.13164 
 C                     4.61489   1.06906   1.3283 
 H                     4.96074   1.42544   2.3136 
 H                     5.36867   0.36483   0.95343 
 H                     4.57881   1.94031   0.65747 
 C                     4.74511  -0.11475  -1.84278 
 H                     5.32271   0.43253  -1.08959 
 H                     5.45173  -0.73695  -2.41789 
 H                     4.30851   0.61248  -2.54204 
 C                     4.33071  -2.15353  -0.41795 
 H                     4.87364  -2.82209  -1.10618 
 H                     5.05768  -1.76684   0.3071 
 H                     3.58406  -2.75868   0.11881 
 C                     2.90649  -1.68714  -2.39423 
 H                     2.18531  -2.43269  -2.03005 
 H                     2.39151  -0.94284  -3.01938 
 H                     3.62757  -2.21171  -3.04201 
 C                    -3.30587  -0.81202  -2.52674 
 H                    -3.62278  -0.48034  -3.53017 
 H                    -2.31853  -1.28297  -2.615 
 H                    -4.02958  -1.56193  -2.18718 
 C                    -4.65929   1.0031   -1.43317 
 H                    -5.00037   1.37308  -2.41529 
 H                    -5.38874   0.25561  -1.09525 
 H                    -4.67761   1.85483  -0.73672 
 C                    -2.36523   1.48708  -2.25899 
 H                    -2.38909   2.43881  -1.71058 
 H                    -1.32231   1.16439  -2.35618 
 H                    -2.75854   1.68174  -3.27055 
 C                    -2.92324  -1.65842   2.31252 
 H                    -2.18595  -2.39536   1.96655 
 H                    -2.40875  -0.90796   2.92696 
 H                    -3.646    -2.18045   2.96126 
 C                    -4.77689  -0.11411   1.73112 
 H                    -5.36247   0.41004   0.96803 
 H                    -5.47445  -0.73612   2.31738 
 H                    -4.3525    0.63299   2.41706 
 C                    -4.32708  -2.16304   0.3303 
 H                    -4.88209  -2.82163   1.01863 
 H                    -5.03944  -1.79445  -0.41883 
 H                    -3.56632  -2.77505  -0.17851 
 O                     0.02865  -3.79613  -0.33443 
 C                     0.05929  -1.04637   1.76685 
 H                    -0.03471  -3.79822  -1.30524 
 O                     0.12708  -1.08764   2.93618 
 
 Stoichiometry    C24H45NO3P2Ru(3)
 Framework group  C1[X(C24H45NO3P2Ru)]
 Deg. of freedom   222
 Full point group                 C1      NOp   1
 Largest Abelian subgroup         C1      NOp   1
 Largest concise Abelian subgroup C1      NOp   1
                         Standard orientation:                         
 ---------------------------------------------------------------------
 Center     Atomic      Atomic             Coordinates (Angstroms)
 Number     Number       Type             X           Y           Z
 ---------------------------------------------------------------------
      1         15           0        2.412605   -0.076266   -0.140864
      2          7           0       -0.015569    1.688586   -0.095193
      3          6           0        2.188195    1.498824   -1.098653
      4          1           0        3.112645    2.089077   -1.143625
      5          1           0        1.953135    1.173538   -2.125872
      6          8           0       -0.142523   -1.097412   -2.119409
      7         15           0       -2.428593   -0.068014    0.055979
      8          6           0        1.053166    2.336985   -0.572951
      9          6           0        1.113083    3.735814   -0.567869
     10          1           0        1.991348    4.246128   -0.966594
     11          6           0        0.039510    4.449150   -0.033143
     12          1           0        0.060414    5.541096   -0.009669
     13          6           0       -1.058943    3.755173    0.475179
     14          1           0       -1.914094    4.281521    0.902441
     15          6           0       -1.054170    2.355564    0.421026
     16          6           0       -2.213771    1.546003    0.944139
     17          1           0       -3.133231    2.146604    0.935644
     18          1           0       -2.012328    1.273402    1.994194
     19         44           0       -0.012138   -0.991552   -0.032786
     20          1           0        0.692871   -1.455198   -2.437674
     21          6           0       -3.252242    0.405867   -1.603237
     22          6           0       -3.689253   -0.987755    1.160981
     23          6           0        3.673039   -1.033328   -1.215240
     24          6           0        3.238472    0.458265    1.496992
     25          6           0        2.315951    1.493735    2.170640
     26          1           0        2.313949    2.449817    1.630766
     27          1           0        1.278970    1.152733    2.266579
     28          1           0        2.701330    1.689254    3.184550
     29          6           0        3.382373   -0.768705    2.419630
     30          1           0        3.520907   -0.422129    3.456825
     31          1           0        2.501294   -1.421662    2.402016
     32          1           0        4.256142   -1.376033    2.158056
     33          6           0        4.614207    1.113366    1.311308
     34          1           0        4.959916    1.486940    2.290273
     35          1           0        5.368222    0.402971    0.948761
     36          1           0        4.577873    1.972817    0.625426
     37          6           0        4.744910   -0.125363   -1.838700
     38          1           0        5.322309    0.435121   -1.095123
     39          1           0        5.451743   -0.757241   -2.402887
     40          1           0        4.308102    0.589460   -2.550516
     41          6           0        4.331104   -2.139187   -0.378646
     42          1           0        4.874270   -2.819440   -1.055137
     43          1           0        5.057934   -1.739714    0.339584
     44          1           0        3.584634   -2.735144    0.168532
     45          6           0        2.906811   -1.707679   -2.362777
     46          1           0        2.185848   -2.447014   -1.985713
     47          1           0        2.391612   -0.974530   -3.000788
     48          1           0        3.628077   -2.243204   -3.001324
     49          6           0       -3.305821   -0.836972   -2.510658
     50          1           0       -3.622808   -0.522882   -3.519720
     51          1           0       -2.318338   -1.309072   -2.590690
     52          1           0       -4.029307   -1.581089   -2.158134
     53          6           0       -4.659855    0.996459   -1.448855
     54          1           0       -5.001017    1.349202   -2.437275
     55          1           0       -5.389082    0.254731   -1.098014
     56          1           0       -4.678470    1.860167   -0.767327
     57          6           0       -2.365926    1.466741   -2.282900
     58          1           0       -2.390104    2.427847   -1.751122
     59          1           0       -1.322896    1.142735   -2.374437
     60          1           0       -2.759262    1.643658   -3.297702
     61          6           0       -2.923087   -1.598970    2.342599
     62          1           0       -2.185557   -2.341582    2.009507
     63          1           0       -2.408862   -0.837782    2.943910
     64          1           0       -3.645703   -2.109875    3.000289
     65          6           0       -4.777211   -0.065589    1.734377
     66          1           0       -5.362932    0.445023    0.962271
     67          1           0       -5.474596   -0.677537    2.331346
     68          1           0       -4.353080    0.693451    2.407234
     69          6           0       -4.326705   -2.138427    0.369409
     70          1           0       -4.881524   -2.785129    1.069074
     71          1           0       -5.039157   -1.783143   -0.386039
     72          1           0       -3.565728   -2.758947   -0.128664
     73          8           0        0.029568   -3.781452   -0.266703
     74          6           0        0.059268   -0.995556    1.786448
     75          1           0       -0.033762   -3.800440   -1.237329
     76          8           0        0.127025   -1.016464    2.956324
 ---------------------------------------------------------------------
 Rotational constants (GHZ):           0.1822130           0.1022996           0.0915306
 Standard basis: def2SVP (5D, 7F)
 There are   719 symmetry adapted cartesian basis functions of A   symmetry.
 There are   684 symmetry adapted basis functions of A   symmetry.
   684 basis functions,  1154 primitive gaussians,   719 cartesian basis functions
   134 alpha electrons      132 beta electrons
       nuclear repulsion energy      4430.3728574429 Hartrees.
 NAtoms=   76 NActive=   76 NUniq=   76 SFac= 1.00D+00 NAtFMM=   60 NAOKFM=T Big=T
 Integral buffers will be    131072 words long.
 Raffenetti 2 integral format.
 Two-electron integral symmetry is turned on.
 Nuclear repulsion after empirical dispersion term =     4430.1509314279 Hartrees.
 ------------------------------------------------------------------------------
 Polarizable Continuum Model (PCM)
 =================================
 Model                : PCM.
 Atomic radii         : SMD-Coulomb.
 Polarization charges : Total charges.
 Charge compensation  : None.
 Solution method      : On-the-fly selection.
 Cavity type          : VdW (van der Waals Surface) (Alpha=1.000).
 Cavity algorithm     : GePol (No added spheres)
                        Default sphere list used, NSphG=   76.
                        Lebedev-Laikov grids with approx.  5.0 points / Ang**2.
                        Smoothing algorithm: York/Karplus (Gamma=1.0000).
                        Polarization charges: spherical gaussians, with
                                              point-specific exponents (IZeta= 3).
                        Self-potential: point-specific (ISelfS= 7).
                        Self-field    : sphere-specific E.n sum rule (ISelfD= 2).
 Solvent              : Water, Eps=  78.355300 Eps(inf)=   1.777849
 ------------------------------------------------------------------------------
 ------------------------------------------------------------------------------
 Atomic radii for non-electrostatic terms: SMD-CDS.
 ------------------------------------------------------------------------------
 Nuclear repulsion after PCM non-electrostatic terms =     4430.1701698231 Hartrees.
 One-electron integrals computed using PRISM.
   1 Symmetry operations used in ECPInt.
 ECPInt:  NShTT=   54615 NPrTT=  190596 LenC2=   47785 LenP2D=  112560.
 LDataN:  DoStor=T MaxTD1= 7 Len=  274
 NBasis=   684 RedAO= T EigKep=  4.90D-04  NBF=   684
 NBsUse=   684 1.00D-06 EigRej= -1.00D+00 NBFU=   684
 Defaulting to unpruned grid for atomic number  44.
 Initial guess from the checkpoint file:  "A_Ru_Cis_straight_CO_DFT_B3LYP_def2SVP_smd_water_T_3MC_freezedScan_2_8.chk"
 B after Tr=     0.000000   -0.000000   -0.000000
         Rot=    0.999960    0.008917    0.000021   -0.000193 Ang=   1.02 deg.
 Initial guess <Sx>= 0.0000 <Sy>= 0.0000 <Sz>= 1.0000 <S**2>= 2.0207 S= 1.0069
 Requested convergence on RMS density matrix=1.00D-08 within  32 cycles.
 Requested convergence on MAX density matrix=1.00D-06.
 Requested convergence on             energy=1.00D-06.
 No special actions if energy rises.
 Defaulting to unpruned grid for atomic number  44.
 Defaulting to unpruned grid for atomic number  44.
 Defaulting to unpruned grid for atomic number  44.
 Defaulting to unpruned grid for atomic number  44.
 Defaulting to unpruned grid for atomic number  44.
 Defaulting to unpruned grid for atomic number  44.
 Defaulting to unpruned grid for atomic number  44.
 Defaulting to unpruned grid for atomic number  44.
 Defaulting to unpruned grid for atomic number  44.
 Defaulting to unpruned grid for atomic number  44.
 Defaulting to unpruned grid for atomic number  44.
 Defaulting to unpruned grid for atomic number  44.
 Defaulting to unpruned grid for atomic number  44.
 Defaulting to unpruned grid for atomic number  44.
 Defaulting to unpruned grid for atomic number  44.
 Defaulting to unpruned grid for atomic number  44.
 Defaulting to unpruned grid for atomic number  44.
 Defaulting to unpruned grid for atomic number  44.
 Defaulting to unpruned grid for atomic number  44.
 Defaulting to unpruned grid for atomic number  44.
 Defaulting to unpruned grid for atomic number  44.
 Defaulting to unpruned grid for atomic number  44.
 Defaulting to unpruned grid for atomic number  44.
 Defaulting to unpruned grid for atomic number  44.
 Inv3:  Mode=1 IEnd=    68201472.
 Iteration    1 A*A^-1 deviation from unit magnitude is 3.33D-15 for   3532.
 Iteration    1 A*A^-1 deviation from orthogonality  is 3.00D-15 for   3685   1854.
 Iteration    1 A^-1*A deviation from unit magnitude is 3.33D-15 for   3532.
 Iteration    1 A^-1*A deviation from orthogonality  is 3.55D-15 for   4719   3635.
 Restarting incremental Fock formation.
 Error on total polarization charges =  0.07723
 SCF Done:  E(UB3LYP) =  -1998.92152494     A.U. after   21 cycles
            NFock= 21  Conv=0.25D-08     -V/T= 2.0404
 <Sx>= 0.0000 <Sy>= 0.0000 <Sz>= 1.0000 <S**2>= 2.0230 S= 1.0076
 <L.S>=  0.00000000000    
 SMD-CDS (non-electrostatic) energy       (kcal/mol) =      12.07
 (included in total energy above)
 Annihilation of the first spin contaminant:
 S**2 before annihilation     2.0230,   after     2.0003
 QCSCF skips out because SCF is already converged.

 **********************************************************************

            Population analysis using the SCF Density.

 **********************************************************************

 Orbital symmetries:
 Alpha Orbitals:
       Occupied  (A) (A) (A) (A) (A) (A) (A) (A) (A) (A) (A) (A)
                 (A) (A) (A) (A) (A) (A) (A) (A) (A) (A) (A) (A)
                 (A) (A) (A) (A) (A) (A) (A) (A) (A) (A) (A) (A)
                 (A) (A) (A) (A) (A) (A) (A) (A) (A) (A) (A) (A)
                 (A) (A) (A) (A) (A) (A) (A) (A) (A) (A) (A) (A)
                 (A) (A) (A) (A) (A) (A) (A) (A) (A) (A) (A) (A)
                 (A) (A) (A) (A) (A) (A) (A) (A) (A) (A) (A) (A)
                 (A) (A) (A) (A) (A) (A) (A) (A) (A) (A) (A) (A)
                 (A) (A) (A) (A) (A) (A) (A) (A) (A) (A) (A) (A)
                 (A) (A) (A) (A) (A) (A) (A) (A) (A) (A) (A) (A)
                 (A) (A) (A) (A) (A) (A) (A) (A) (A) (A) (A) (A)
                 (A) (A)
       Virtual   (A) (A) (A) (A) (A) (A) (A) (A) (A) (A) (A) (A)
                 (A) (A) (A) (A) (A) (A) (A) (A) (A) (A) (A) (A)
                 (A) (A) (A) (A) (A) (A) (A) (A) (A) (A) (A) (A)
                 (A) (A) (A) (A) (A) (A) (A) (A) (A) (A) (A) (A)
                 (A) (A) (A) (A) (A) (A) (A) (A) (A) (A) (A) (A)
                 (A) (A) (A) (A) (A) (A) (A) (A) (A) (A) (A) (A)
                 (A) (A) (A) (A) (A) (A) (A) (A) (A) (A) (A) (A)
                 (A) (A) (A) (A) (A) (A) (A) (A) (A) (A) (A) (A)
                 (A) (A) (A) (A) (A) (A) (A) (A) (A) (A) (A) (A)
                 (A) (A) (A) (A) (A) (A) (A) (A) (A) (A) (A) (A)
                 (A) (A) (A) (A) (A) (A) (A) (A) (A) (A) (A) (A)
                 (A) (A) (A) (A) (A) (A) (A) (A) (A) (A) (A) (A)
                 (A) (A) (A) (A) (A) (A) (A) (A) (A) (A) (A) (A)
                 (A) (A) (A) (A) (A) (A) (A) (A) (A) (A) (A) (A)
                 (A) (A) (A) (A) (A) (A) (A) (A) (A) (A) (A) (A)
                 (A) (A) (A) (A) (A) (A) (A) (A) (A) (A) (A) (A)
                 (A) (A) (A) (A) (A) (A) (A) (A) (A) (A) (A) (A)
                 (A) (A) (A) (A) (A) (A) (A) (A) (A) (A) (A) (A)
                 (A) (A) (A) (A) (A) (A) (A) (A) (A) (A) (A) (A)
                 (A) (A) (A) (A) (A) (A) (A) (A) (A) (A) (A) (A)
                 (A) (A) (A) (A) (A) (A) (A) (A) (A) (A) (A) (A)
                 (A) (A) (A) (A) (A) (A) (A) (A) (A) (A) (A) (A)
                 (A) (A) (A) (A) (A) (A) (A) (A) (A) (A) (A) (A)
                 (A) (A) (A) (A) (A) (A) (A) (A) (A) (A) (A) (A)
                 (A) (A) (A) (A) (A) (A) (A) (A) (A) (A) (A) (A)
                 (A) (A) (A) (A) (A) (A) (A) (A) (A) (A) (A) (A)
                 (A) (A) (A) (A) (A) (A) (A) (A) (A) (A) (A) (A)
                 (A) (A) (A) (A) (A) (A) (A) (A) (A) (A) (A) (A)
                 (A) (A) (A) (A) (A) (A) (A) (A) (A) (A) (A) (A)
                 (A) (A) (A) (A) (A) (A) (A) (A) (A) (A) (A) (A)
                 (A) (A) (A) (A) (A) (A) (A) (A) (A) (A) (A) (A)
                 (A) (A) (A) (A) (A) (A) (A) (A) (A) (A) (A) (A)
                 (A) (A) (A) (A) (A) (A) (A) (A) (A) (A) (A) (A)
                 (A) (A) (A) (A) (A) (A) (A) (A) (A) (A) (A) (A)
                 (A) (A) (A) (A) (A) (A) (A) (A) (A) (A) (A) (A)
                 (A) (A) (A) (A) (A) (A) (A) (A) (A) (A) (A) (A)
                 (A) (A) (A) (A) (A) (A) (A) (A) (A) (A) (A) (A)
                 (A) (A) (A) (A) (A) (A) (A) (A) (A) (A) (A) (A)
                 (A) (A) (A) (A) (A) (A) (A) (A) (A) (A) (A) (A)
                 (A) (A) (A) (A) (A) (A) (A) (A) (A) (A) (A) (A)
                 (A) (A) (A) (A) (A) (A) (A) (A) (A) (A) (A) (A)
                 (A) (A) (A) (A) (A) (A) (A) (A) (A) (A) (A) (A)
                 (A) (A) (A) (A) (A) (A) (A) (A) (A) (A) (A) (A)
                 (A) (A) (A) (A) (A) (A) (A) (A) (A) (A) (A) (A)
                 (A) (A) (A) (A) (A) (A) (A) (A) (A) (A) (A) (A)
                 (A) (A) (A) (A) (A) (A) (A) (A) (A) (A)
 Beta  Orbitals:
       Occupied  (A) (A) (A) (A) (A) (A) (A) (A) (A) (A) (A) (A)
                 (A) (A) (A) (A) (A) (A) (A) (A) (A) (A) (A) (A)
                 (A) (A) (A) (A) (A) (A) (A) (A) (A) (A) (A) (A)
                 (A) (A) (A) (A) (A) (A) (A) (A) (A) (A) (A) (A)
                 (A) (A) (A) (A) (A) (A) (A) (A) (A) (A) (A) (A)
                 (A) (A) (A) (A) (A) (A) (A) (A) (A) (A) (A) (A)
                 (A) (A) (A) (A) (A) (A) (A) (A) (A) (A) (A) (A)
                 (A) (A) (A) (A) (A) (A) (A) (A) (A) (A) (A) (A)
                 (A) (A) (A) (A) (A) (A) (A) (A) (A) (A) (A) (A)
                 (A) (A) (A) (A) (A) (A) (A) (A) (A) (A) (A) (A)
                 (A) (A) (A) (A) (A) (A) (A) (A) (A) (A) (A) (A)
       Virtual   (A) (A) (A) (A) (A) (A) (A) (A) (A) (A) (A) (A)
                 (A) (A) (A) (A) (A) (A) (A) (A) (A) (A) (A) (A)
                 (A) (A) (A) (A) (A) (A) (A) (A) (A) (A) (A) (A)
                 (A) (A) (A) (A) (A) (A) (A) (A) (A) (A) (A) (A)
                 (A) (A) (A) (A) (A) (A) (A) (A) (A) (A) (A) (A)
                 (A) (A) (A) (A) (A) (A) (A) (A) (A) (A) (A) (A)
                 (A) (A) (A) (A) (A) (A) (A) (A) (A) (A) (A) (A)
                 (A) (A) (A) (A) (A) (A) (A) (A) (A) (A) (A) (A)
                 (A) (A) (A) (A) (A) (A) (A) (A) (A) (A) (A) (A)
                 (A) (A) (A) (A) (A) (A) (A) (A) (A) (A) (A) (A)
                 (A) (A) (A) (A) (A) (A) (A) (A) (A) (A) (A) (A)
                 (A) (A) (A) (A) (A) (A) (A) (A) (A) (A) (A) (A)
                 (A) (A) (A) (A) (A) (A) (A) (A) (A) (A) (A) (A)
                 (A) (A) (A) (A) (A) (A) (A) (A) (A) (A) (A) (A)
                 (A) (A) (A) (A) (A) (A) (A) (A) (A) (A) (A) (A)
                 (A) (A) (A) (A) (A) (A) (A) (A) (A) (A) (A) (A)
                 (A) (A) (A) (A) (A) (A) (A) (A) (A) (A) (A) (A)
                 (A) (A) (A) (A) (A) (A) (A) (A) (A) (A) (A) (A)
                 (A) (A) (A) (A) (A) (A) (A) (A) (A) (A) (A) (A)
                 (A) (A) (A) (A) (A) (A) (A) (A) (A) (A) (A) (A)
                 (A) (A) (A) (A) (A) (A) (A) (A) (A) (A) (A) (A)
                 (A) (A) (A) (A) (A) (A) (A) (A) (A) (A) (A) (A)
                 (A) (A) (A) (A) (A) (A) (A) (A) (A) (A) (A) (A)
                 (A) (A) (A) (A) (A) (A) (A) (A) (A) (A) (A) (A)
                 (A) (A) (A) (A) (A) (A) (A) (A) (A) (A) (A) (A)
                 (A) (A) (A) (A) (A) (A) (A) (A) (A) (A) (A) (A)
                 (A) (A) (A) (A) (A) (A) (A) (A) (A) (A) (A) (A)
                 (A) (A) (A) (A) (A) (A) (A) (A) (A) (A) (A) (A)
                 (A) (A) (A) (A) (A) (A) (A) (A) (A) (A) (A) (A)
                 (A) (A) (A) (A) (A) (A) (A) (A) (A) (A) (A) (A)
                 (A) (A) (A) (A) (A) (A) (A) (A) (A) (A) (A) (A)
                 (A) (A) (A) (A) (A) (A) (A) (A) (A) (A) (A) (A)
                 (A) (A) (A) (A) (A) (A) (A) (A) (A) (A) (A) (A)
                 (A) (A) (A) (A) (A) (A) (A) (A) (A) (A) (A) (A)
                 (A) (A) (A) (A) (A) (A) (A) (A) (A) (A) (A) (A)
                 (A) (A) (A) (A) (A) (A) (A) (A) (A) (A) (A) (A)
                 (A) (A) (A) (A) (A) (A) (A) (A) (A) (A) (A) (A)
                 (A) (A) (A) (A) (A) (A) (A) (A) (A) (A) (A) (A)
                 (A) (A) (A) (A) (A) (A) (A) (A) (A) (A) (A) (A)
                 (A) (A) (A) (A) (A) (A) (A) (A) (A) (A) (A) (A)
                 (A) (A) (A) (A) (A) (A) (A) (A) (A) (A) (A) (A)
                 (A) (A) (A) (A) (A) (A) (A) (A) (A) (A) (A) (A)
                 (A) (A) (A) (A) (A) (A) (A) (A) (A) (A) (A) (A)
                 (A) (A) (A) (A) (A) (A) (A) (A) (A) (A) (A) (A)
                 (A) (A) (A) (A) (A) (A) (A) (A) (A) (A) (A) (A)
                 (A) (A) (A) (A) (A) (A) (A) (A) (A) (A) (A) (A)
 The electronic state is 3-A.
 Alpha  occ. eigenvalues --  -77.08656 -77.08350 -19.17837 -19.06716 -19.04289
 Alpha  occ. eigenvalues --  -14.34182 -10.26885 -10.24114 -10.24079 -10.21003
 Alpha  occ. eigenvalues --  -10.20919 -10.20863 -10.20723 -10.20599 -10.19722
 Alpha  occ. eigenvalues --  -10.19717 -10.19658 -10.19612 -10.17662 -10.17517
 Alpha  occ. eigenvalues --  -10.17478 -10.17443 -10.17392 -10.17374 -10.17324
 Alpha  occ. eigenvalues --  -10.17311 -10.17170 -10.17156 -10.17015 -10.16513
 Alpha  occ. eigenvalues --   -6.57814  -6.57519  -4.74417  -4.74359  -4.74161
 Alpha  occ. eigenvalues --   -4.74124  -4.74063  -4.73865  -3.06145  -1.90799
 Alpha  occ. eigenvalues --   -1.90719  -1.88770  -1.08043  -0.95605  -0.88475
 Alpha  occ. eigenvalues --   -0.84464  -0.82449  -0.81880  -0.79993  -0.79955
 Alpha  occ. eigenvalues --   -0.79693  -0.79437  -0.73799  -0.70135  -0.68052
 Alpha  occ. eigenvalues --   -0.67930  -0.67851  -0.67569  -0.67087  -0.67012
 Alpha  occ. eigenvalues --   -0.66794  -0.66677  -0.63953  -0.63078  -0.59822
 Alpha  occ. eigenvalues --   -0.59528  -0.54494  -0.54313  -0.54115  -0.51667
 Alpha  occ. eigenvalues --   -0.51337  -0.50295  -0.49581  -0.47202  -0.46996
 Alpha  occ. eigenvalues --   -0.45854  -0.45503  -0.45090  -0.44792  -0.44681
 Alpha  occ. eigenvalues --   -0.44325  -0.44036  -0.43868  -0.43265  -0.43144
 Alpha  occ. eigenvalues --   -0.42867  -0.42655  -0.42299  -0.42151  -0.41674
 Alpha  occ. eigenvalues --   -0.41493  -0.41264  -0.40510  -0.40103  -0.39154
 Alpha  occ. eigenvalues --   -0.38911  -0.38754  -0.37822  -0.37502  -0.37313
 Alpha  occ. eigenvalues --   -0.37286  -0.37165  -0.37013  -0.36784  -0.36293
 Alpha  occ. eigenvalues --   -0.35997  -0.35714  -0.35550  -0.35485  -0.34921
 Alpha  occ. eigenvalues --   -0.34542  -0.34227  -0.33752  -0.33076  -0.32766
 Alpha  occ. eigenvalues --   -0.32747  -0.32380  -0.32226  -0.31665  -0.31232
 Alpha  occ. eigenvalues --   -0.31039  -0.30249  -0.29536  -0.29356  -0.29006
 Alpha  occ. eigenvalues --   -0.28621  -0.28103  -0.25477  -0.25150  -0.24607
 Alpha  occ. eigenvalues --   -0.23364  -0.22000  -0.20993  -0.18534
 Alpha virt. eigenvalues --   -0.04191  -0.03762  -0.02454   0.00193   0.01121
 Alpha virt. eigenvalues --    0.04287   0.04431   0.05301   0.05876   0.06198
 Alpha virt. eigenvalues --    0.07262   0.07391   0.07857   0.08150   0.08410
 Alpha virt. eigenvalues --    0.08584   0.09122   0.09645   0.10030   0.10319
 Alpha virt. eigenvalues --    0.10567   0.10858   0.11317   0.11842   0.12184
 Alpha virt. eigenvalues --    0.12292   0.12566   0.13318   0.13505   0.13549
 Alpha virt. eigenvalues --    0.13832   0.13961   0.14046   0.14782   0.14874
 Alpha virt. eigenvalues --    0.15195   0.15402   0.15970   0.16185   0.16560
 Alpha virt. eigenvalues --    0.16759   0.16876   0.17477   0.17665   0.17863
 Alpha virt. eigenvalues --    0.17961   0.18460   0.18747   0.19052   0.19620
 Alpha virt. eigenvalues --    0.20033   0.20145   0.20513   0.20703   0.20816
 Alpha virt. eigenvalues --    0.21060   0.21273   0.21479   0.21706   0.22016
 Alpha virt. eigenvalues --    0.22609   0.22998   0.23201   0.24212   0.24421
 Alpha virt. eigenvalues --    0.24767   0.25089   0.25378   0.25684   0.26123
 Alpha virt. eigenvalues --    0.26547   0.27430   0.27835   0.28638   0.29730
 Alpha virt. eigenvalues --    0.30726   0.31060   0.31439   0.31735   0.34367
 Alpha virt. eigenvalues --    0.35473   0.35712   0.36458   0.37703   0.38284
 Alpha virt. eigenvalues --    0.39421   0.39776   0.40385   0.40582   0.40777
 Alpha virt. eigenvalues --    0.41178   0.41529   0.42364   0.42992   0.43225
 Alpha virt. eigenvalues --    0.43530   0.44008   0.44778   0.45397   0.45706
 Alpha virt. eigenvalues --    0.46408   0.46732   0.47653   0.48257   0.48972
 Alpha virt. eigenvalues --    0.49112   0.49888   0.51435   0.51768   0.52392
 Alpha virt. eigenvalues --    0.52652   0.53223   0.53363   0.53871   0.54003
 Alpha virt. eigenvalues --    0.54452   0.55384   0.56181   0.56483   0.57337
 Alpha virt. eigenvalues --    0.57987   0.58080   0.58366   0.58942   0.59374
 Alpha virt. eigenvalues --    0.59591   0.60004   0.60444   0.61109   0.61276
 Alpha virt. eigenvalues --    0.61962   0.62347   0.62787   0.62932   0.63243
 Alpha virt. eigenvalues --    0.63513   0.63648   0.64475   0.64509   0.64806
 Alpha virt. eigenvalues --    0.65057   0.65286   0.65592   0.65757   0.65933
 Alpha virt. eigenvalues --    0.66125   0.66329   0.66750   0.66916   0.67133
 Alpha virt. eigenvalues --    0.67524   0.67791   0.67935   0.68290   0.68448
 Alpha virt. eigenvalues --    0.68669   0.68800   0.69108   0.69253   0.69300
 Alpha virt. eigenvalues --    0.69732   0.70446   0.70514   0.70761   0.70979
 Alpha virt. eigenvalues --    0.71050   0.71271   0.71405   0.72244   0.72355
 Alpha virt. eigenvalues --    0.72559   0.72856   0.73025   0.73232   0.73420
 Alpha virt. eigenvalues --    0.73507   0.73860   0.74311   0.74584   0.74769
 Alpha virt. eigenvalues --    0.75194   0.75537   0.75912   0.76173   0.76595
 Alpha virt. eigenvalues --    0.76895   0.77459   0.77794   0.78099   0.78473
 Alpha virt. eigenvalues --    0.78620   0.79035   0.79215   0.80155   0.80526
 Alpha virt. eigenvalues --    0.80603   0.81008   0.81557   0.81728   0.82026
 Alpha virt. eigenvalues --    0.82445   0.83121   0.83353   0.84328   0.84689
 Alpha virt. eigenvalues --    0.85277   0.85777   0.86402   0.87210   0.87656
 Alpha virt. eigenvalues --    0.88513   0.88790   0.89424   0.89875   0.90550
 Alpha virt. eigenvalues --    0.91297   0.91711   0.92885   0.94149   0.94915
 Alpha virt. eigenvalues --    0.95750   0.95841   0.97541   0.99178   0.99740
 Alpha virt. eigenvalues --    1.01698   1.01954   1.02701   1.03217   1.03542
 Alpha virt. eigenvalues --    1.04604   1.05186   1.06050   1.06511   1.07288
 Alpha virt. eigenvalues --    1.07585   1.08298   1.08713   1.09773   1.11070
 Alpha virt. eigenvalues --    1.11912   1.12176   1.12896   1.14120   1.14670
 Alpha virt. eigenvalues --    1.15984   1.16535   1.16684   1.17930   1.18312
 Alpha virt. eigenvalues --    1.18760   1.19552   1.20032   1.20812   1.21407
 Alpha virt. eigenvalues --    1.22186   1.23089   1.24029   1.24544   1.24555
 Alpha virt. eigenvalues --    1.25022   1.25814   1.26898   1.27172   1.28172
 Alpha virt. eigenvalues --    1.28452   1.29372   1.30099   1.30710   1.31274
 Alpha virt. eigenvalues --    1.31899   1.33089   1.34341   1.36549   1.37313
 Alpha virt. eigenvalues --    1.37736   1.39332   1.41350   1.43044   1.44194
 Alpha virt. eigenvalues --    1.45129   1.48027   1.48371   1.49356   1.49678
 Alpha virt. eigenvalues --    1.50708   1.51445   1.51876   1.52493   1.53047
 Alpha virt. eigenvalues --    1.53511   1.54143   1.54285   1.54803   1.55373
 Alpha virt. eigenvalues --    1.55842   1.56243   1.56674   1.56991   1.57679
 Alpha virt. eigenvalues --    1.57858   1.58447   1.58491   1.58803   1.59313
 Alpha virt. eigenvalues --    1.59373   1.60027   1.60738   1.61229   1.61326
 Alpha virt. eigenvalues --    1.62276   1.62529   1.63470   1.63673   1.64564
 Alpha virt. eigenvalues --    1.65208   1.65568   1.65889   1.66204   1.66340
 Alpha virt. eigenvalues --    1.67734   1.68367   1.68734   1.69346   1.70728
 Alpha virt. eigenvalues --    1.71302   1.72311   1.72636   1.73870   1.74604
 Alpha virt. eigenvalues --    1.76118   1.76544   1.76883   1.77097   1.77344
 Alpha virt. eigenvalues --    1.78066   1.78493   1.78836   1.78954   1.79189
 Alpha virt. eigenvalues --    1.79470   1.80045   1.80096   1.80934   1.81094
 Alpha virt. eigenvalues --    1.81484   1.81984   1.82239   1.82655   1.83322
 Alpha virt. eigenvalues --    1.83667   1.84193   1.84367   1.84512   1.85109
 Alpha virt. eigenvalues --    1.85214   1.85678   1.85991   1.86243   1.86886
 Alpha virt. eigenvalues --    1.87239   1.87560   1.87713   1.87997   1.88646
 Alpha virt. eigenvalues --    1.89085   1.90122   1.90481   1.90935   1.91480
 Alpha virt. eigenvalues --    1.92460   1.92630   1.93027   1.93226   1.93545
 Alpha virt. eigenvalues --    1.93725   1.93952   1.94219   1.94257   1.94645
 Alpha virt. eigenvalues --    1.95299   1.95706   1.95788   1.96017   1.96853
 Alpha virt. eigenvalues --    1.97212   1.98078   1.98368   1.98767   1.99087
 Alpha virt. eigenvalues --    1.99756   2.00484   2.00762   2.00972   2.01351
 Alpha virt. eigenvalues --    2.01872   2.02342   2.02459   2.03541   2.03640
 Alpha virt. eigenvalues --    2.04180   2.04812   2.06840   2.08022   2.09714
 Alpha virt. eigenvalues --    2.10666   2.11836   2.14868   2.15728   2.16033
 Alpha virt. eigenvalues --    2.16607   2.16743   2.17556   2.17686   2.18250
 Alpha virt. eigenvalues --    2.18498   2.18853   2.19041   2.19562   2.19928
 Alpha virt. eigenvalues --    2.20354   2.20742   2.21348   2.22145   2.22561
 Alpha virt. eigenvalues --    2.22621   2.23179   2.23983   2.24167   2.24801
 Alpha virt. eigenvalues --    2.24974   2.27032   2.27796   2.28970   2.29298
 Alpha virt. eigenvalues --    2.29891   2.34917   2.37910   2.38354   2.38819
 Alpha virt. eigenvalues --    2.39182   2.39862   2.40479   2.40762   2.41238
 Alpha virt. eigenvalues --    2.42012   2.42123   2.42400   2.42897   2.43143
 Alpha virt. eigenvalues --    2.44314   2.44744   2.45808   2.46921   2.47020
 Alpha virt. eigenvalues --    2.47572   2.48876   2.50138   2.51188   2.52126
 Alpha virt. eigenvalues --    2.55181   2.55481   2.55875   2.56192   2.56343
 Alpha virt. eigenvalues --    2.56406   2.56591   2.57426   2.58193   2.61259
 Alpha virt. eigenvalues --    2.62026   2.62344   2.62724   2.62870   2.63403
 Alpha virt. eigenvalues --    2.63628   2.63764   2.63951   2.64176   2.64724
 Alpha virt. eigenvalues --    2.64834   2.65189   2.65795   2.65820   2.67498
 Alpha virt. eigenvalues --    2.69121   2.72132   2.72507   2.72912   2.73206
 Alpha virt. eigenvalues --    2.73720   2.74066   2.74288   2.75539   2.79836
 Alpha virt. eigenvalues --    2.80366   2.81564   2.84121   2.86156   2.87046
 Alpha virt. eigenvalues --    2.87417   2.87663   2.88388   2.88836   2.89090
 Alpha virt. eigenvalues --    2.89216   2.89717   2.90830   2.91264   2.92827
 Alpha virt. eigenvalues --    2.92993   2.93508   2.94330   2.94848   2.95683
 Alpha virt. eigenvalues --    2.95800   2.96279   2.96439   2.96921   2.97049
 Alpha virt. eigenvalues --    2.97463   2.98147   2.98858   2.99606   2.99825
 Alpha virt. eigenvalues --    3.02044   3.02284   3.03911   3.04868   3.05266
 Alpha virt. eigenvalues --    3.05793   3.06287   3.06878   3.07660   3.08538
 Alpha virt. eigenvalues --    3.08831   3.09575   3.09918   3.11094   3.11969
 Alpha virt. eigenvalues --    3.12482   3.14220   3.18768   3.19928   3.36201
 Alpha virt. eigenvalues --    3.61866   3.72922   3.79615   3.86997  45.25026
  Beta  occ. eigenvalues --  -77.08625 -77.08316 -19.17965 -19.06705 -19.03910
  Beta  occ. eigenvalues --  -14.33871 -10.27048 -10.24126 -10.24091 -10.20971
  Beta  occ. eigenvalues --  -10.20913 -10.20871 -10.20698 -10.20588 -10.19707
  Beta  occ. eigenvalues --  -10.19702 -10.19658 -10.19610 -10.17663 -10.17514
  Beta  occ. eigenvalues --  -10.17478 -10.17436 -10.17392 -10.17369 -10.17318
  Beta  occ. eigenvalues --  -10.17312 -10.17168 -10.17156 -10.17016 -10.16513
  Beta  occ. eigenvalues --   -6.57776  -6.57478  -4.74390  -4.74337  -4.74096
  Beta  occ. eigenvalues --   -4.74082  -4.74039  -4.73778  -3.00070  -1.85847
  Beta  occ. eigenvalues --   -1.82992  -1.81246  -1.08271  -0.95340  -0.88439
  Beta  occ. eigenvalues --   -0.83620  -0.82402  -0.81826  -0.79953  -0.79882
  Beta  occ. eigenvalues --   -0.79670  -0.79414  -0.73749  -0.70093  -0.68036
  Beta  occ. eigenvalues --   -0.67923  -0.67834  -0.67566  -0.67083  -0.67002
  Beta  occ. eigenvalues --   -0.66782  -0.66676  -0.63830  -0.62968  -0.59718
  Beta  occ. eigenvalues --   -0.59408  -0.54613  -0.54383  -0.54082  -0.51614
  Beta  occ. eigenvalues --   -0.51257  -0.50201  -0.49532  -0.47147  -0.46981
  Beta  occ. eigenvalues --   -0.45756  -0.45443  -0.44964  -0.44733  -0.44654
  Beta  occ. eigenvalues --   -0.44321  -0.44007  -0.43853  -0.43349  -0.43144
  Beta  occ. eigenvalues --   -0.42838  -0.42686  -0.42315  -0.42141  -0.41725
  Beta  occ. eigenvalues --   -0.41500  -0.41261  -0.40223  -0.40051  -0.39130
  Beta  occ. eigenvalues --   -0.38882  -0.38727  -0.37806  -0.37486  -0.37289
  Beta  occ. eigenvalues --   -0.37269  -0.37161  -0.36983  -0.36749  -0.36282
  Beta  occ. eigenvalues --   -0.35917  -0.35547  -0.35522  -0.35337  -0.34794
  Beta  occ. eigenvalues --   -0.34494  -0.34062  -0.33664  -0.33063  -0.32747
  Beta  occ. eigenvalues --   -0.32523  -0.32326  -0.32145  -0.31554  -0.30488
  Beta  occ. eigenvalues --   -0.29613  -0.29316  -0.29001  -0.28006  -0.27660
  Beta  occ. eigenvalues --   -0.27478  -0.26207  -0.25347  -0.23070  -0.22241
  Beta  occ. eigenvalues --   -0.21866  -0.20474
  Beta virt. eigenvalues --   -0.09689  -0.06569  -0.03846  -0.02460  -0.01497
  Beta virt. eigenvalues --    0.00827   0.01456   0.04380   0.04790   0.05640
  Beta virt. eigenvalues --    0.06201   0.06407   0.07309   0.07532   0.07936
  Beta virt. eigenvalues --    0.08197   0.08526   0.08642   0.09206   0.09675
  Beta virt. eigenvalues --    0.10059   0.10364   0.10600   0.10909   0.11343
  Beta virt. eigenvalues --    0.11857   0.12251   0.12317   0.12679   0.13382
  Beta virt. eigenvalues --    0.13579   0.13616   0.13882   0.13987   0.14089
  Beta virt. eigenvalues --    0.14832   0.14895   0.15219   0.15456   0.16056
  Beta virt. eigenvalues --    0.16258   0.16612   0.16869   0.16936   0.17501
  Beta virt. eigenvalues --    0.17688   0.17905   0.18027   0.18503   0.18764
  Beta virt. eigenvalues --    0.19143   0.19738   0.20081   0.20198   0.20619
  Beta virt. eigenvalues --    0.20787   0.20929   0.21121   0.21299   0.21535
  Beta virt. eigenvalues --    0.21753   0.22093   0.22642   0.23060   0.23431
  Beta virt. eigenvalues --    0.24287   0.24530   0.24844   0.25177   0.25673
  Beta virt. eigenvalues --    0.25757   0.26169   0.26675   0.27504   0.27935
  Beta virt. eigenvalues --    0.28818   0.30002   0.30844   0.31183   0.31618
  Beta virt. eigenvalues --    0.32191   0.34524   0.35716   0.35960   0.36755
  Beta virt. eigenvalues --    0.37923   0.38718   0.39475   0.39795   0.40489
  Beta virt. eigenvalues --    0.40631   0.40881   0.41292   0.41639   0.42536
  Beta virt. eigenvalues --    0.43092   0.43321   0.43675   0.44106   0.44869
  Beta virt. eigenvalues --    0.45522   0.45755   0.46490   0.46864   0.47898
  Beta virt. eigenvalues --    0.48540   0.49067   0.49352   0.50015   0.51623
  Beta virt. eigenvalues --    0.51965   0.52490   0.52846   0.53303   0.53427
  Beta virt. eigenvalues --    0.54045   0.54178   0.54527   0.55480   0.56242
  Beta virt. eigenvalues --    0.56601   0.57426   0.58152   0.58208   0.58494
  Beta virt. eigenvalues --    0.59023   0.59451   0.59779   0.60052   0.60491
  Beta virt. eigenvalues --    0.61193   0.61326   0.62055   0.62574   0.62878
  Beta virt. eigenvalues --    0.62985   0.63305   0.63587   0.63713   0.64546
  Beta virt. eigenvalues --    0.64567   0.64830   0.65128   0.65324   0.65672
  Beta virt. eigenvalues --    0.65806   0.65971   0.66177   0.66376   0.66783
  Beta virt. eigenvalues --    0.67022   0.67165   0.67572   0.67839   0.68073
  Beta virt. eigenvalues --    0.68399   0.68472   0.68725   0.68856   0.69182
  Beta virt. eigenvalues --    0.69299   0.69359   0.69778   0.70480   0.70552
  Beta virt. eigenvalues --    0.70785   0.71074   0.71120   0.71312   0.71446
  Beta virt. eigenvalues --    0.72279   0.72464   0.72607   0.72915   0.73044
  Beta virt. eigenvalues --    0.73287   0.73453   0.73567   0.73938   0.74372
  Beta virt. eigenvalues --    0.74693   0.74887   0.75228   0.75648   0.75966
  Beta virt. eigenvalues --    0.76255   0.76677   0.77005   0.77540   0.77895
  Beta virt. eigenvalues --    0.78148   0.78526   0.78704   0.79095   0.79348
  Beta virt. eigenvalues --    0.80234   0.80575   0.80818   0.81080   0.81602
  Beta virt. eigenvalues --    0.81842   0.82096   0.82493   0.83155   0.83493
  Beta virt. eigenvalues --    0.84375   0.84818   0.85342   0.85915   0.86538
  Beta virt. eigenvalues --    0.87330   0.87826   0.88683   0.88936   0.89580
  Beta virt. eigenvalues --    0.90002   0.90728   0.91342   0.91809   0.92990
  Beta virt. eigenvalues --    0.94303   0.95001   0.95837   0.96033   0.97723
  Beta virt. eigenvalues --    0.99286   1.00176   1.01850   1.02167   1.02786
  Beta virt. eigenvalues --    1.03403   1.03753   1.04775   1.05244   1.06155
  Beta virt. eigenvalues --    1.06776   1.07462   1.07717   1.08419   1.08883
  Beta virt. eigenvalues --    1.09966   1.11156   1.12028   1.12295   1.12952
  Beta virt. eigenvalues --    1.14241   1.14864   1.16078   1.16561   1.16746
  Beta virt. eigenvalues --    1.18141   1.18417   1.18869   1.19629   1.20118
  Beta virt. eigenvalues --    1.20871   1.21501   1.22238   1.23170   1.24092
  Beta virt. eigenvalues --    1.24591   1.24623   1.25077   1.25866   1.27113
  Beta virt. eigenvalues --    1.27227   1.28243   1.28607   1.29484   1.30224
  Beta virt. eigenvalues --    1.30837   1.31306   1.31946   1.33177   1.34427
  Beta virt. eigenvalues --    1.36745   1.37400   1.37882   1.39498   1.41565
  Beta virt. eigenvalues --    1.43272   1.44301   1.45403   1.48182   1.48520
  Beta virt. eigenvalues --    1.49443   1.49723   1.50825   1.51565   1.51958
  Beta virt. eigenvalues --    1.52555   1.53104   1.53563   1.54171   1.54368
  Beta virt. eigenvalues --    1.54820   1.55447   1.55892   1.56281   1.56700
  Beta virt. eigenvalues --    1.57043   1.57732   1.58025   1.58490   1.58537
  Beta virt. eigenvalues --    1.58834   1.59348   1.59403   1.60072   1.60798
  Beta virt. eigenvalues --    1.61312   1.61536   1.62527   1.62646   1.63589
  Beta virt. eigenvalues --    1.63840   1.64657   1.65316   1.65663   1.66048
  Beta virt. eigenvalues --    1.66362   1.66600   1.67870   1.68699   1.69223
  Beta virt. eigenvalues --    1.69750   1.70778   1.71387   1.72429   1.72670
  Beta virt. eigenvalues --    1.73935   1.74665   1.76206   1.76670   1.76938
  Beta virt. eigenvalues --    1.77210   1.77377   1.78121   1.78531   1.78900
  Beta virt. eigenvalues --    1.79009   1.79335   1.79541   1.80152   1.80361
  Beta virt. eigenvalues --    1.81026   1.81249   1.81577   1.82186   1.82316
  Beta virt. eigenvalues --    1.82694   1.83677   1.83927   1.84366   1.84453
  Beta virt. eigenvalues --    1.84566   1.85281   1.85460   1.85720   1.86106
  Beta virt. eigenvalues --    1.86308   1.87011   1.87398   1.87947   1.88403
  Beta virt. eigenvalues --    1.89396   1.90292   1.90753   1.91243   1.91574
  Beta virt. eigenvalues --    1.91914   1.92549   1.92791   1.93059   1.93444
  Beta virt. eigenvalues --    1.93670   1.93895   1.94159   1.94215   1.94672
  Beta virt. eigenvalues --    1.94960   1.95084   1.95768   1.95847   1.96387
  Beta virt. eigenvalues --    1.96885   1.96992   1.97867   1.98273   1.98828
  Beta virt. eigenvalues --    1.98993   1.99797   2.00007   2.00608   2.00897
  Beta virt. eigenvalues --    2.01264   2.01767   2.02436   2.02489   2.03698
  Beta virt. eigenvalues --    2.03803   2.04217   2.04424   2.06362   2.08383
  Beta virt. eigenvalues --    2.09246   2.10000   2.11499   2.12263   2.15051
  Beta virt. eigenvalues --    2.15767   2.16080   2.16649   2.16845   2.17600
  Beta virt. eigenvalues --    2.17801   2.18278   2.18535   2.18937   2.19104
  Beta virt. eigenvalues --    2.19689   2.19988   2.20425   2.20778   2.21426
  Beta virt. eigenvalues --    2.22221   2.22640   2.22724   2.23210   2.24070
  Beta virt. eigenvalues --    2.24253   2.24878   2.25117   2.27215   2.28013
  Beta virt. eigenvalues --    2.29477   2.29655   2.30584   2.34964   2.37981
  Beta virt. eigenvalues --    2.38414   2.38836   2.39209   2.39915   2.40528
  Beta virt. eigenvalues --    2.40795   2.41275   2.42047   2.42152   2.42438
  Beta virt. eigenvalues --    2.42909   2.43186   2.44355   2.44855   2.45822
  Beta virt. eigenvalues --    2.46968   2.47072   2.47595   2.48893   2.50187
  Beta virt. eigenvalues --    2.51220   2.52144   2.55200   2.55500   2.55908
  Beta virt. eigenvalues --    2.56215   2.56365   2.56436   2.56614   2.57443
  Beta virt. eigenvalues --    2.58208   2.61273   2.61980   2.62325   2.62733
  Beta virt. eigenvalues --    2.62886   2.63411   2.63632   2.63800   2.63973
  Beta virt. eigenvalues --    2.64172   2.64420   2.64807   2.65208   2.65722
  Beta virt. eigenvalues --    2.65987   2.67402   2.69183   2.72284   2.72529
  Beta virt. eigenvalues --    2.72926   2.73248   2.73822   2.74162   2.75106
  Beta virt. eigenvalues --    2.75814   2.80517   2.80579   2.81742   2.84140
  Beta virt. eigenvalues --    2.86194   2.87062   2.87440   2.87676   2.88417
  Beta virt. eigenvalues --    2.88847   2.89109   2.89229   2.89728   2.90840
  Beta virt. eigenvalues --    2.91272   2.92845   2.93005   2.93573   2.94347
  Beta virt. eigenvalues --    2.94886   2.95715   2.95815   2.96295   2.96548
  Beta virt. eigenvalues --    2.96930   2.97190   2.97523   2.98174   2.98869
  Beta virt. eigenvalues --    2.99638   2.99916   3.02054   3.02295   3.03988
  Beta virt. eigenvalues --    3.05006   3.05620   3.05959   3.06663   3.07012
  Beta virt. eigenvalues --    3.07752   3.08571   3.08854   3.09589   3.09925
  Beta virt. eigenvalues --    3.11103   3.11977   3.12508   3.14368   3.18539
  Beta virt. eigenvalues --    3.19736   3.36571   3.62003   3.72854   3.79959
  Beta virt. eigenvalues --    3.87046  45.11833
          Condensed to atoms (all electrons):
          Atomic-Atomic Spin Densities.
 Mulliken charges and spin densities:
               1          2
     1  P    0.275351   0.070365
     2  N   -0.121463   0.082284
     3  C    0.020274   0.003863
     4  H    0.065320  -0.000365
     5  H    0.094220  -0.000120
     6  O   -0.543477   0.000006
     7  P    0.277742   0.077035
     8  C   -0.044697  -0.006676
     9  C   -0.000032   0.006720
    10  H    0.011647   0.001166
    11  C    0.067949  -0.006098
    12  H    0.024340   0.000183
    13  C   -0.003183   0.006731
    14  H    0.011182   0.001210
    15  C   -0.035019  -0.006678
    16  C    0.013627   0.005010
    17  H    0.067384  -0.000303
    18  H    0.094853  -0.000242
    19  Ru  -0.011459   1.734064
    20  H    0.175893   0.001255
    21  C   -0.382151   0.003534
    22  C   -0.390701   0.009208
    23  C   -0.388845   0.012142
    24  C   -0.395009   0.001362
    25  C    0.072605  -0.000488
    26  H    0.025957   0.000053
    27  H    0.042247   0.001430
    28  H    0.018802  -0.000115
    29  C    0.083003   0.000244
    30  H    0.015079  -0.000061
    31  H    0.032300   0.001584
    32  H    0.012465  -0.000009
    33  C    0.077521   0.000510
    34  H    0.014670   0.001121
    35  H    0.037910  -0.000001
    36  H    0.027355   0.000022
    37  C    0.080133   0.001464
    38  H    0.013268  -0.000027
    39  H    0.017633   0.002423
    40  H    0.026095  -0.000062
    41  C    0.073074   0.000011
    42  H    0.016523   0.000179
    43  H    0.036979   0.000013
    44  H    0.038467   0.001001
    45  C    0.057632   0.000823
    46  H    0.024702  -0.001015
    47  H    0.035941   0.000138
    48  H    0.020572  -0.000128
    49  C    0.074697   0.000199
    50  H    0.007450  -0.000118
    51  H    0.017041   0.000110
    52  H    0.005628   0.000019
    53  C    0.078611   0.001199
    54  H    0.012311   0.001396
    55  H    0.034650  -0.000025
    56  H    0.027261  -0.000063
    57  C    0.070640  -0.000569
    58  H    0.024021   0.000027
    59  H    0.027212   0.000546
    60  H    0.013088  -0.000008
    61  C    0.076384  -0.000073
    62  H    0.043590   0.001203
    63  H    0.022853   0.000042
    64  H    0.014737  -0.000242
    65  C    0.080443   0.001210
    66  H    0.011198   0.000026
    67  H    0.015531   0.002169
    68  H    0.023762  -0.000063
    69  C    0.069876  -0.000127
    70  H    0.014343   0.000047
    71  H    0.037873   0.000043
    72  H    0.039931   0.001248
    73  O   -0.692435   0.121566
    74  C    0.054038  -0.095469
    75  H    0.156326   0.001657
    76  O   -0.145740  -0.040714
 Sum of Mulliken charges =  -0.00000   2.00000
 Mulliken charges and spin densities with hydrogens summed into heavy atoms:
               1          2
     1  P    0.275351   0.070365
     2  N   -0.121463   0.082284
     3  C    0.179814   0.003378
     6  O   -0.367584   0.001261
     7  P    0.277742   0.077035
     8  C   -0.044697  -0.006676
     9  C    0.011615   0.007886
    11  C    0.092289  -0.005916
    13  C    0.007999   0.007941
    15  C   -0.035019  -0.006678
    16  C    0.175863   0.004465
    19  Ru  -0.011459   1.734064
    21  C   -0.382151   0.003534
    22  C   -0.390701   0.009208
    23  C   -0.388845   0.012142
    24  C   -0.395009   0.001362
    25  C    0.159610   0.000880
    29  C    0.142848   0.001757
    33  C    0.157456   0.001653
    37  C    0.137130   0.003798
    41  C    0.165043   0.001203
    45  C    0.138847  -0.000181
    49  C    0.104817   0.000210
    53  C    0.152832   0.002506
    57  C    0.134961  -0.000004
    61  C    0.157564   0.000931
    65  C    0.130934   0.003342
    69  C    0.162023   0.001211
    73  O   -0.536109   0.123223
    74  C    0.054038  -0.095469
    76  O   -0.145740  -0.040714
 Electronic spatial extent (au):  <R**2>=          13922.4696
 Charge=              0.0000 electrons
 Dipole moment (field-independent basis, Debye):
    X=              2.1617    Y=             18.3847    Z=              0.3650  Tot=             18.5149
 Quadrupole moment (field-independent basis, Debye-Ang):
   XX=           -167.0914   YY=           -244.8745   ZZ=           -229.7750
   XY=             -1.9733   XZ=            -12.0346   YZ=              3.2963
 Traceless Quadrupole moment (field-independent basis, Debye-Ang):
   XX=             46.8222   YY=            -30.9609   ZZ=            -15.8613
   XY=             -1.9733   XZ=            -12.0346   YZ=              3.2963
 Octapole moment (field-independent basis, Debye-Ang**2):
  XXX=             15.4705  YYY=            229.1833  ZZZ=            -16.5148  XYY=              4.0065
  XXY=            -11.0667  XXZ=             -2.0665  XZZ=             14.6673  YZZ=             -7.8082
  YYZ=            -10.8301  XYZ=              5.9746
 Hexadecapole moment (field-independent basis, Debye-Ang**3):
 XXXX=         -10343.8074 YYYY=          -4827.2920 ZZZZ=          -3406.3358 XXXY=            -11.2807
 XXXZ=            -65.5646 YYYX=              6.8683 YYYZ=             50.5101 ZZZX=            -44.0415
 ZZZY=             41.1441 XXYY=          -2496.3179 XXZZ=          -2267.5650 YYZZ=          -1323.5640
 XXYZ=              4.1676 YYXZ=            -79.7701 ZZXY=            -16.5681
 N-N= 4.430170169823D+03 E-N=-1.351296909608D+04  KE= 1.921261996820D+03
                          Isotropic Fermi Contact Couplings
        Atom                 a.u.       MegaHertz       Gauss      10(-4) cm-1
     1  P(31)              0.08361      75.71375      27.01655      25.25539
     2  N(14)              0.19315      31.20414      11.13441      10.40858
     3  C(13)             -0.00445      -2.50164      -0.89265      -0.83446
     4  H(1)              -0.00005      -0.11522      -0.04111      -0.03843
     5  H(1)              -0.00009      -0.19608      -0.06997      -0.06540
     6  O(17)              0.00684      -2.07434      -0.74017      -0.69192
     7  P(31)              0.08664      78.45321      27.99406      26.16917
     8  C(13)             -0.00545      -3.06566      -1.09390      -1.02259
     9  C(13)              0.00694       3.90035       1.39174       1.30102
    10  H(1)               0.00024       0.54490       0.19443       0.18176
    11  C(13)             -0.00131      -0.73589      -0.26258      -0.24547
    12  H(1)               0.00007       0.15491       0.05527       0.05167
    13  C(13)              0.00695       3.90808       1.39450       1.30360
    14  H(1)               0.00025       0.56106       0.20020       0.18715
    15  C(13)             -0.00565      -3.17346      -1.13237      -1.05855
    16  C(13)             -0.00425      -2.38967      -0.85269      -0.79711
    17  H(1)              -0.00004      -0.07858      -0.02804      -0.02621
    18  H(1)              -0.00016      -0.36140      -0.12896      -0.12055
    19  Ru(99)            -0.00001       0.00059       0.00021       0.00020
    20  H(1)               0.00085       1.90918       0.68124       0.63683
    21  C(13)              0.00393       2.21022       0.78866       0.73725
    22  C(13)              0.00901       5.06323       1.80668       1.68891
    23  C(13)              0.01190       6.69009       2.38719       2.23157
    24  C(13)              0.00227       1.27807       0.45605       0.42632
    25  C(13)             -0.00052      -0.29368      -0.10479      -0.09796
    26  H(1)               0.00000       0.00312       0.00111       0.00104
    27  H(1)               0.00002       0.05188       0.01851       0.01730
    28  H(1)              -0.00003      -0.07819      -0.02790      -0.02608
    29  C(13)              0.00129       0.72313       0.25803       0.24121
    30  H(1)              -0.00001      -0.02377      -0.00848      -0.00793
    31  H(1)              -0.00002      -0.05079      -0.01812      -0.01694
    32  H(1)              -0.00001      -0.01250      -0.00446      -0.00417
    33  C(13)              0.00164       0.92308       0.32938       0.30791
    34  H(1)               0.00038       0.84056       0.29993       0.28038
    35  H(1)               0.00001       0.02402       0.00857       0.00801
    36  H(1)               0.00003       0.07425       0.02649       0.02477
    37  C(13)              0.00310       1.74028       0.62098       0.58050
    38  H(1)               0.00003       0.05760       0.02055       0.01921
    39  H(1)               0.00086       1.92111       0.68550       0.64081
    40  H(1)               0.00001       0.02333       0.00833       0.00778
    41  C(13)             -0.00043      -0.24157      -0.08620      -0.08058
    42  H(1)               0.00005       0.11156       0.03981       0.03721
    43  H(1)               0.00000       0.00362       0.00129       0.00121
    44  H(1)              -0.00002      -0.05245      -0.01871      -0.01749
    45  C(13)             -0.00018      -0.09906      -0.03535      -0.03304
    46  H(1)               0.00001       0.02181       0.00778       0.00728
    47  H(1)               0.00005       0.10710       0.03821       0.03572
    48  H(1)              -0.00003      -0.07319      -0.02612      -0.02441
    49  C(13)             -0.00003      -0.01953      -0.00697      -0.00651
    50  H(1)              -0.00003      -0.06361      -0.02270      -0.02122
    51  H(1)               0.00000       0.01059       0.00378       0.00353
    52  H(1)               0.00001       0.02356       0.00841       0.00786
    53  C(13)              0.00299       1.68005       0.59948       0.56040
    54  H(1)               0.00044       0.98010       0.34973       0.32693
    55  H(1)               0.00000       0.00472       0.00168       0.00157
    56  H(1)              -0.00000      -0.00395      -0.00141      -0.00132
    57  C(13)             -0.00067      -0.37476      -0.13372      -0.12501
    58  H(1)              -0.00001      -0.02923      -0.01043      -0.00975
    59  H(1)               0.00005       0.11758       0.04196       0.03922
    60  H(1)               0.00000       0.01096       0.00391       0.00366
    61  C(13)              0.00103       0.57886       0.20655       0.19309
    62  H(1)              -0.00002      -0.05207      -0.01858      -0.01737
    63  H(1)               0.00001       0.01216       0.00434       0.00406
    64  H(1)              -0.00008      -0.18011      -0.06427      -0.06008
    65  C(13)              0.00272       1.53067       0.54618       0.51058
    66  H(1)               0.00004       0.09380       0.03347       0.03129
    67  H(1)               0.00080       1.77706       0.63410       0.59276
    68  H(1)               0.00001       0.01942       0.00693       0.00648
    69  C(13)             -0.00033      -0.18530      -0.06612      -0.06181
    70  H(1)               0.00002       0.03918       0.01398       0.01307
    71  H(1)               0.00001       0.03070       0.01095       0.01024
    72  H(1)              -0.00003      -0.06442      -0.02299      -0.02149
    73  O(17)              0.09664     -29.29067     -10.45164      -9.77032
    74  C(13)             -0.05498     -30.90580     -11.02796     -10.30906
    75  H(1)              -0.00156      -3.48953      -1.24515      -1.16398
    76  O(17)             -0.01554       4.71107       1.68103       1.57144
 --------------------------------------------------------
       Center         ----  Spin Dipole Couplings  ----
                      3XX-RR        3YY-RR        3ZZ-RR
 --------------------------------------------------------
     1   Atom        0.062634      0.008828     -0.071462
     2   Atom       -0.125214      0.231410     -0.106197
     3   Atom        0.002696      0.007278     -0.009974
     4   Atom        0.001724      0.001526     -0.003250
     5   Atom       -0.000537      0.000087      0.000449
     6   Atom        0.031610     -0.006989     -0.024620
     7   Atom        0.067754      0.014883     -0.082637
     8   Atom        0.004007      0.011483     -0.015491
     9   Atom       -0.005192      0.008325     -0.003133
    10   Atom       -0.000751      0.002554     -0.001803
    11   Atom       -0.000962      0.007167     -0.006205
    12   Atom       -0.000857      0.002056     -0.001198
    13   Atom       -0.005288      0.008332     -0.003044
    14   Atom       -0.000845      0.002563     -0.001718
    15   Atom        0.001246      0.011612     -0.012858
    16   Atom        0.001811      0.007808     -0.009619
    17   Atom        0.001658      0.001616     -0.003273
    18   Atom       -0.000800     -0.000086      0.000886
    19   Atom        0.188835      0.363257     -0.552092
    20   Atom       -0.011616     -0.011662      0.023278
    21   Atom        0.004305     -0.004336      0.000031
    22   Atom        0.011885     -0.008703     -0.003182
    23   Atom        0.015332     -0.009633     -0.005700
    24   Atom        0.003678     -0.003417     -0.000261
    25   Atom       -0.000267     -0.000185      0.000452
    26   Atom       -0.000294      0.001901     -0.001607
    27   Atom       -0.003719     -0.000842      0.004561
    28   Atom       -0.000442     -0.000569      0.001012
    29   Atom        0.002700     -0.003861      0.001161
    30   Atom        0.000293     -0.001938      0.001645
    31   Atom        0.000383     -0.004868      0.004485
    32   Atom        0.002859     -0.002343     -0.000515
    33   Atom        0.003819     -0.001345     -0.002475
    34   Atom        0.001175     -0.000745     -0.000430
    35   Atom        0.002986     -0.001473     -0.001513
    36   Atom        0.001785     -0.000004     -0.001781
    37   Atom        0.005047     -0.003509     -0.001537
    38   Atom        0.003192     -0.001357     -0.001835
    39   Atom        0.002111     -0.001201     -0.000909
    40   Atom        0.001716     -0.001329     -0.000387
    41   Atom        0.005473     -0.001723     -0.003750
    42   Atom        0.003012     -0.000980     -0.002031
    43   Atom        0.004192     -0.002002     -0.002191
    44   Atom        0.006552     -0.001414     -0.005139
    45   Atom        0.002576     -0.004678      0.002102
    46   Atom        0.002419     -0.003480      0.001061
    47   Atom        0.000456     -0.004904      0.004448
    48   Atom        0.001418     -0.001956      0.000539
    49   Atom        0.002671     -0.004031      0.001360
    50   Atom        0.000916     -0.002159      0.001244
    51   Atom        0.001159     -0.006333      0.005174
    52   Atom        0.003670     -0.002747     -0.000923
    53   Atom        0.005292     -0.001934     -0.003358
    54   Atom        0.001366     -0.000913     -0.000453
    55   Atom        0.003305     -0.001636     -0.001669
    56   Atom        0.001942     -0.000109     -0.001833
    57   Atom       -0.000056      0.000025      0.000030
    58   Atom       -0.000182      0.002036     -0.001854
    59   Atom       -0.003855      0.000267      0.003588
    60   Atom       -0.000302     -0.000485      0.000787
    61   Atom        0.001360     -0.004279      0.002920
    62   Atom        0.000522     -0.003845      0.003324
    63   Atom       -0.001154     -0.003955      0.005109
    64   Atom        0.000863     -0.001877      0.001014
    65   Atom        0.004639     -0.003269     -0.001370
    66   Atom        0.003119     -0.001406     -0.001713
    67   Atom        0.001878     -0.001159     -0.000720
    68   Atom        0.001479     -0.001208     -0.000272
    69   Atom        0.005605     -0.001815     -0.003790
    70   Atom        0.002852     -0.001001     -0.001851
    71   Atom        0.004356     -0.002000     -0.002355
    72   Atom        0.006737     -0.001308     -0.005429
    73   Atom       -0.039184      0.308017     -0.268832
    74   Atom       -0.038733     -0.053913      0.092646
    75   Atom       -0.023580      0.004290      0.019290
    76   Atom       -0.033459     -0.073323      0.106782
 --------------------------------------------------------
                        XY            XZ            YZ
 --------------------------------------------------------
     1   Atom        0.120270     -0.032422     -0.033934
     2   Atom        0.006126      0.011711      0.007265
     3   Atom        0.002485     -0.003626     -0.001808
     4   Atom        0.004035     -0.001745     -0.001742
     5   Atom        0.004783     -0.005591     -0.006136
     6   Atom        0.027192     -0.003400     -0.007076
     7   Atom       -0.131826     -0.033404      0.031296
     8   Atom        0.011843     -0.009088     -0.004068
     9   Atom        0.001947      0.001556     -0.000765
    10   Atom        0.002070     -0.000544     -0.000936
    11   Atom        0.000174     -0.003328      0.000307
    12   Atom        0.000061     -0.000175      0.000110
    13   Atom       -0.001758      0.001484      0.000765
    14   Atom       -0.001941     -0.000599      0.001140
    15   Atom       -0.010579     -0.011451      0.006874
    16   Atom       -0.001886     -0.003866      0.002314
    17   Atom       -0.004015     -0.001776      0.001845
    18   Atom       -0.004026     -0.005305      0.006104
    19   Atom        0.000815     -0.007745      0.070224
    20   Atom       -0.002541     -0.011002      0.005987
    21   Atom       -0.007021      0.009720     -0.006014
    22   Atom        0.006691     -0.015103     -0.005664
    23   Atom       -0.009249     -0.016221      0.006794
    24   Atom        0.005544      0.007891      0.004715
    25   Atom        0.003311      0.004063      0.004192
    26   Atom        0.003368      0.002347      0.003133
    27   Atom        0.002883      0.005503      0.008172
    28   Atom        0.001429      0.002289      0.002312
    29   Atom        0.000661      0.006060      0.000422
    30   Atom        0.000412      0.003082      0.000492
    31   Atom       -0.000536      0.008643     -0.001526
    32   Atom       -0.000528      0.003493     -0.000406
    33   Atom        0.003212      0.001953      0.000943
    34   Atom        0.001325      0.001435      0.000808
    35   Atom        0.001133      0.001101      0.000409
    36   Atom        0.002527      0.000712      0.000435
    37   Atom        0.002992     -0.005147     -0.001797
    38   Atom        0.001702     -0.000910     -0.000042
    39   Atom        0.000004     -0.001947      0.000101
    40   Atom        0.001457     -0.002639     -0.001410
    41   Atom       -0.002351     -0.000723     -0.000380
    42   Atom       -0.001996     -0.001083      0.000331
    43   Atom       -0.001156      0.000891     -0.000268
    44   Atom       -0.005288      0.000987     -0.000645
    45   Atom       -0.001887     -0.007278      0.001415
    46   Atom       -0.005682     -0.009990      0.006416
    47   Atom        0.000200     -0.006690     -0.000117
    48   Atom       -0.001210     -0.003505      0.001386
    49   Atom       -0.000339      0.006013     -0.000070
    50   Atom       -0.000469      0.003286     -0.000353
    51   Atom        0.000762      0.009346      0.001248
    52   Atom        0.000995      0.003998      0.000771
    53   Atom       -0.003972      0.001998     -0.000889
    54   Atom       -0.001419      0.001483     -0.000808
    55   Atom       -0.000963      0.000990     -0.000371
    56   Atom       -0.002632      0.000605     -0.000268
    57   Atom       -0.003772      0.004106     -0.004202
    58   Atom       -0.003561      0.002237     -0.002964
    59   Atom       -0.003931      0.005557     -0.008042
    60   Atom       -0.001761      0.002357     -0.002373
    61   Atom        0.001426     -0.007450     -0.001407
    62   Atom        0.003882     -0.009785     -0.006066
    63   Atom       -0.000223     -0.005883      0.000382
    64   Atom        0.000864     -0.003371     -0.001216
    65   Atom       -0.002673     -0.004881      0.001597
    66   Atom       -0.001587     -0.001039      0.000095
    67   Atom       -0.000037     -0.001970     -0.000083
    68   Atom       -0.001377     -0.002632      0.001382
    69   Atom        0.002213     -0.001404     -0.000018
    70   Atom        0.001889     -0.001430     -0.000464
    71   Atom        0.001272      0.000524      0.000218
    72   Atom        0.005591     -0.000140      0.000145
    73   Atom        0.011548     -0.014493      0.038427
    74   Atom       -0.002766      0.005472     -0.004710
    75   Atom        0.000488      0.002657      0.013829
    76   Atom       -0.001294      0.007662     -0.006455
 --------------------------------------------------------


 ---------------------------------------------------------------------------------
              Anisotropic Spin Dipole Couplings in Principal Axis System
 ---------------------------------------------------------------------------------

       Atom             a.u.   MegaHertz   Gauss  10(-4) cm-1        Axes

              Baa    -0.0910   -19.683    -7.023    -6.565 -0.4697  0.7328  0.4923
     1 P(31)  Bbb    -0.0770   -16.640    -5.937    -5.550  0.4437 -0.2861  0.8493
              Bcc     0.1680    36.322    12.961    12.116  0.7632  0.6173 -0.1908
 
              Baa    -0.1308    -5.045    -1.800    -1.683  0.9037 -0.0067 -0.4281
     2 N(14)  Bbb    -0.1009    -3.890    -1.388    -1.298  0.4278 -0.0276  0.9035
              Bcc     0.2317     8.935     3.188     2.981  0.0179  0.9996  0.0221
 
              Baa    -0.0110    -1.477    -0.527    -0.493  0.2447  0.0624  0.9676
     3 C(13)  Bbb     0.0021     0.282     0.101     0.094  0.8587 -0.4773 -0.1864
              Bcc     0.0089     1.195     0.426     0.399  0.4502  0.8765 -0.1704
 
              Baa    -0.0039    -2.074    -0.740    -0.692  0.1661  0.1877  0.9681
     4 H(1)   Bbb    -0.0024    -1.286    -0.459    -0.429 -0.7021  0.7119 -0.0175
              Bcc     0.0063     3.360     1.199     1.121  0.6924  0.6768 -0.2500
 
              Baa    -0.0061    -3.229    -1.152    -1.077  0.3556  0.5075  0.7849
     5 H(1)   Bbb    -0.0050    -2.673    -0.954    -0.892  0.7662 -0.6392  0.0662
              Bcc     0.0111     5.902     2.106     1.969 -0.5353 -0.5778  0.6161
 
              Baa    -0.0282     2.044     0.729     0.682 -0.1880  0.5182  0.8344
     6 O(17)  Bbb    -0.0180     1.300     0.464     0.434 -0.4319  0.7193 -0.5441
              Bcc     0.0462    -3.344    -1.193    -1.115  0.8821  0.4626 -0.0886
 
              Baa    -0.0951   -20.554    -7.334    -6.856  0.4614  0.7060 -0.5373
     7 P(31)  Bbb    -0.0885   -19.138    -6.829    -6.384  0.4558  0.3310  0.8263
              Bcc     0.1836    39.692    14.163    13.240  0.7612 -0.6261 -0.1691
 
              Baa    -0.0191    -2.561    -0.914    -0.854  0.3761 -0.0224  0.9263
     8 C(13)  Bbb    -0.0031    -0.418    -0.149    -0.140  0.6985 -0.6500 -0.2993
              Bcc     0.0222     2.979     1.063     0.994  0.6088  0.7596 -0.2288
 
              Baa    -0.0063    -0.849    -0.303    -0.283  0.8762 -0.1405 -0.4611
     9 C(13)  Bbb    -0.0023    -0.309    -0.110    -0.103  0.4629 -0.0210  0.8861
              Bcc     0.0086     1.157     0.413     0.386  0.1342  0.9899 -0.0466
 
              Baa    -0.0020    -1.087    -0.388    -0.362  0.3282  0.0444  0.9436
    10 H(1)   Bbb    -0.0017    -0.920    -0.328    -0.307  0.8419 -0.4667 -0.2709
              Bcc     0.0038     2.006     0.716     0.669  0.4284  0.8833 -0.1905
 
              Baa    -0.0078    -1.050    -0.375    -0.350  0.4365 -0.0235  0.8994
    11 C(13)  Bbb     0.0007     0.088     0.031     0.029  0.8996 -0.0034 -0.4367
              Bcc     0.0072     0.963     0.344     0.321  0.0133  0.9997  0.0196
 
              Baa    -0.0013    -0.681    -0.243    -0.227  0.3890 -0.0376  0.9205
    12 H(1)   Bbb    -0.0008    -0.418    -0.149    -0.140  0.9210 -0.0047 -0.3894
              Bcc     0.0021     1.099     0.392     0.367  0.0190  0.9993  0.0328
 
              Baa    -0.0063    -0.842    -0.301    -0.281  0.8891  0.1300 -0.4389
    13 C(13)  Bbb    -0.0023    -0.310    -0.110    -0.103  0.4416  0.0084  0.8972
              Bcc     0.0086     1.152     0.411     0.384 -0.1203  0.9915  0.0499
 
              Baa    -0.0020    -1.087    -0.388    -0.363  0.3006 -0.1080  0.9476
    14 H(1)   Bbb    -0.0017    -0.911    -0.325    -0.304  0.8638  0.4521 -0.2225
              Bcc     0.0037     1.998     0.713     0.666 -0.4044  0.8854  0.2292
 
              Baa    -0.0193    -2.588    -0.923    -0.863  0.4736 -0.0337  0.8801
    15 C(13)  Bbb    -0.0031    -0.416    -0.148    -0.139  0.6803  0.6487 -0.3412
              Bcc     0.0224     3.003     1.072     1.002 -0.5594  0.7603  0.3301
 
              Baa    -0.0110    -1.470    -0.524    -0.490  0.2764 -0.0902  0.9568
    16 C(13)  Bbb     0.0020     0.265     0.095     0.088  0.8979  0.3791 -0.2236
              Bcc     0.0090     1.205     0.430     0.402 -0.3426  0.9209  0.1858
 
              Baa    -0.0040    -2.111    -0.753    -0.704  0.1583 -0.2057  0.9657
    17 H(1)   Bbb    -0.0024    -1.268    -0.452    -0.423  0.7122  0.7012  0.0326
              Bcc     0.0063     3.379     1.206     1.127  0.6839 -0.6826 -0.2575
 
              Baa    -0.0060    -3.186    -1.137    -1.063  0.3549 -0.5450  0.7596
    18 H(1)   Bbb    -0.0045    -2.384    -0.851    -0.795  0.7844  0.6157  0.0752
              Bcc     0.0104     5.571     1.988     1.858 -0.5087  0.5691  0.6460
 
              Baa    -0.5575    13.661     4.875     4.557  0.0104 -0.0760  0.9970
    19 Ru(99) Bbb     0.1889    -4.629    -1.652    -1.544  0.9999 -0.0004 -0.0105
              Bcc     0.3686    -9.032    -3.223    -3.013  0.0012  0.9971  0.0760
 
              Baa    -0.0151    -8.030    -2.865    -2.679  0.9255  0.3104  0.2172
    20 H(1)   Bbb    -0.0125    -6.654    -2.374    -2.220 -0.2586  0.9366 -0.2365
              Bcc     0.0275    14.684     5.240     4.898 -0.2768  0.1627  0.9471
 
              Baa    -0.0086    -1.150    -0.410    -0.384  0.1024  0.8658  0.4898
    21 C(13)  Bbb    -0.0077    -1.033    -0.369    -0.345  0.6988  0.2878 -0.6549
              Bcc     0.0163     2.183     0.779     0.728  0.7080 -0.4093  0.5755
 
              Baa    -0.0132    -1.777    -0.634    -0.593  0.3553  0.4785  0.8030
    22 C(13)  Bbb    -0.0103    -1.385    -0.494    -0.462 -0.4556  0.8387 -0.2983
              Bcc     0.0236     3.162     1.128     1.055  0.8162  0.2598 -0.5160
 
              Baa    -0.0155    -2.074    -0.740    -0.692  0.2744 -0.5129  0.8134
    23 C(13)  Bbb    -0.0122    -1.633    -0.583    -0.545  0.4768  0.8071  0.3481
              Bcc     0.0276     3.707     1.323     1.236  0.8351 -0.2923 -0.4661
 
              Baa    -0.0068    -0.915    -0.327    -0.305  0.0947  0.7510 -0.6535
    24 C(13)  Bbb    -0.0062    -0.836    -0.298    -0.279  0.6906 -0.5224 -0.5002
              Bcc     0.0131     1.752     0.625     0.584  0.7170  0.4040  0.5681
 
              Baa    -0.0042    -0.566    -0.202    -0.189 -0.3925 -0.4881  0.7796
    25 C(13)  Bbb    -0.0035    -0.474    -0.169    -0.158  0.7397 -0.6713 -0.0478
              Bcc     0.0078     1.040     0.371     0.347  0.5467  0.5578  0.6245
 
              Baa    -0.0036    -1.895    -0.676    -0.632 -0.3130 -0.3204  0.8941
    26 H(1)   Bbb    -0.0027    -1.460    -0.521    -0.487  0.7890 -0.6117  0.0570
              Bcc     0.0063     3.354     1.197     1.119  0.5287  0.7233  0.4442
 
              Baa    -0.0073    -3.891    -1.388    -1.298 -0.5149 -0.5752  0.6356
    27 H(1)   Bbb    -0.0055    -2.921    -1.042    -0.974  0.7824 -0.6183  0.0744
              Bcc     0.0128     6.811     2.430     2.272  0.3502  0.5356  0.7684
 
              Baa    -0.0023    -1.225    -0.437    -0.408 -0.3880 -0.6075  0.6932
    28 H(1)   Bbb    -0.0019    -1.028    -0.367    -0.343  0.7740 -0.6230 -0.1128
              Bcc     0.0042     2.252     0.804     0.751  0.5004  0.4928  0.7119
 
              Baa    -0.0042    -0.567    -0.202    -0.189 -0.6341  0.3578  0.6855
    29 C(13)  Bbb    -0.0039    -0.519    -0.185    -0.173  0.1915  0.9315 -0.3091
              Bcc     0.0081     1.086     0.387     0.362  0.7492  0.0647  0.6592
 
              Baa    -0.0022    -1.167    -0.417    -0.389  0.7817 -0.0708 -0.6196
    30 H(1)   Bbb    -0.0020    -1.069    -0.382    -0.357 -0.0097  0.9920 -0.1255
              Bcc     0.0042     2.237     0.798     0.746  0.6235  0.1041  0.7748
 
              Baa    -0.0066    -3.532    -1.260    -1.178  0.7296 -0.3085 -0.6103
    31 H(1)   Bbb    -0.0048    -2.583    -0.922    -0.862  0.2985  0.9466 -0.1217
              Bcc     0.0115     6.114     2.182     2.040  0.6153 -0.0934  0.7828
 
              Baa    -0.0027    -1.451    -0.518    -0.484 -0.5075  0.1928  0.8398
    32 H(1)   Bbb    -0.0024    -1.275    -0.455    -0.425  0.1766  0.9772 -0.1176
              Bcc     0.0051     2.726     0.973     0.909  0.8433 -0.0886  0.5300
 
              Baa    -0.0030    -0.407    -0.145    -0.136 -0.2067 -0.1469  0.9673
    33 C(13)  Bbb    -0.0029    -0.387    -0.138    -0.129 -0.4417  0.8962  0.0417
              Bcc     0.0059     0.794     0.283     0.265  0.8731  0.4186  0.2501
 
              Baa    -0.0014    -0.771    -0.275    -0.257 -0.2793  0.9037 -0.3246
    34 H(1)   Bbb    -0.0013    -0.677    -0.242    -0.226 -0.5522  0.1254  0.8242
              Bcc     0.0027     1.448     0.517     0.483  0.7856  0.4094  0.4640
 
              Baa    -0.0019    -1.015    -0.362    -0.339 -0.0090 -0.6766  0.7363
    35 H(1)   Bbb    -0.0016    -0.867    -0.309    -0.289 -0.3241  0.6985  0.6380
              Bcc     0.0035     1.882     0.672     0.628  0.9460  0.2329  0.2255
 
              Baa    -0.0019    -1.029    -0.367    -0.343 -0.3258  0.2200  0.9195
    36 H(1)   Bbb    -0.0018    -0.944    -0.337    -0.315 -0.4905  0.7921 -0.3633
              Bcc     0.0037     1.973     0.704     0.658  0.8083  0.5694  0.1502
 
              Baa    -0.0046    -0.614    -0.219    -0.205  0.0482  0.8218  0.5678
    37 C(13)  Bbb    -0.0043    -0.573    -0.205    -0.191  0.5361 -0.5009  0.6795
              Bcc     0.0088     1.187     0.424     0.396  0.8428  0.2716 -0.4647
 
              Baa    -0.0022    -1.170    -0.417    -0.390  0.3149 -0.6053  0.7311
    38 H(1)   Bbb    -0.0017    -0.908    -0.324    -0.303 -0.1319  0.7349  0.6652
              Bcc     0.0039     2.077     0.741     0.693  0.9399  0.3059 -0.1515
 
              Baa    -0.0019    -1.001    -0.357    -0.334  0.4349 -0.1360  0.8902
    39 H(1)   Bbb    -0.0012    -0.634    -0.226    -0.212  0.0683  0.9907  0.1180
              Bcc     0.0031     1.635     0.583     0.545  0.8979 -0.0095 -0.4401
 
              Baa    -0.0024    -1.306    -0.466    -0.436  0.2672  0.6010  0.7533
    40 H(1)   Bbb    -0.0018    -0.949    -0.338    -0.316 -0.5820  0.7236 -0.3709
              Bcc     0.0042     2.255     0.805     0.752  0.7680  0.3393 -0.5431
 
              Baa    -0.0040    -0.536    -0.191    -0.179  0.1491  0.3118  0.9384
    41 C(13)  Bbb    -0.0022    -0.297    -0.106    -0.099  0.2454  0.9076 -0.3405
              Bcc     0.0062     0.833     0.297     0.278  0.9579 -0.2811 -0.0588
 
              Baa    -0.0023    -1.209    -0.431    -0.403  0.2503  0.1419  0.9577
    42 H(1)   Bbb    -0.0018    -0.951    -0.339    -0.317  0.3315  0.9169 -0.2225
              Bcc     0.0040     2.160     0.771     0.720  0.9097 -0.3731 -0.1825
 
              Baa    -0.0024    -1.271    -0.453    -0.424 -0.0209  0.5330  0.8459
    43 H(1)   Bbb    -0.0021    -1.145    -0.409    -0.382  0.2234  0.8272 -0.5157
              Bcc     0.0045     2.416     0.862     0.806  0.9745 -0.1781  0.1364
 
              Baa    -0.0052    -2.801    -0.999    -0.934 -0.0216  0.1367  0.9904
    44 H(1)   Bbb    -0.0040    -2.153    -0.768    -0.718  0.4523  0.8848 -0.1122
              Bcc     0.0093     4.954     1.768     1.652  0.8916 -0.4456  0.0809
 
              Baa    -0.0053    -0.710    -0.253    -0.237  0.5305  0.7593  0.3768
    45 C(13)  Bbb    -0.0047    -0.631    -0.225    -0.210 -0.4604  0.6314 -0.6240
              Bcc     0.0100     1.341     0.479     0.447  0.7117 -0.1576 -0.6846
 
              Baa    -0.0087    -4.628    -1.651    -1.544  0.4679 -0.4370  0.7682
    46 H(1)   Bbb    -0.0069    -3.684    -1.314    -1.229  0.5909  0.8010  0.0958
              Bcc     0.0156     8.312     2.966     2.773  0.6572 -0.4091 -0.6331
 
              Baa    -0.0049    -2.630    -0.938    -0.877 -0.1868  0.9749 -0.1211
    47 H(1)   Bbb    -0.0045    -2.406    -0.858    -0.802  0.7798  0.2222  0.5853
              Bcc     0.0094     5.035     1.797     1.680 -0.5975 -0.0149  0.8017
 
              Baa    -0.0027    -1.458    -0.520    -0.486  0.4108 -0.5940  0.6917
    48 H(1)   Bbb    -0.0023    -1.204    -0.430    -0.402  0.5596  0.7632  0.3231
              Bcc     0.0050     2.662     0.950     0.888  0.7198 -0.2543 -0.6459
 
              Baa    -0.0042    -0.565    -0.202    -0.188  0.4820  0.7115 -0.5114
    49 C(13)  Bbb    -0.0039    -0.518    -0.185    -0.173 -0.4621  0.7023  0.5415
              Bcc     0.0081     1.083     0.386     0.361  0.7444 -0.0247  0.6672
 
              Baa    -0.0023    -1.230    -0.439    -0.410  0.5539  0.7052 -0.4426
    50 H(1)   Bbb    -0.0021    -1.128    -0.402    -0.376 -0.4696  0.7036  0.5334
              Bcc     0.0044     2.358     0.842     0.787  0.6875 -0.0876  0.7208
 
              Baa    -0.0066    -3.527    -1.258    -1.176  0.4778  0.7494 -0.4583
    51 H(1)   Bbb    -0.0062    -3.321    -1.185    -1.108 -0.6162  0.6578  0.4332
              Bcc     0.0128     6.848     2.444     2.284  0.6261  0.0754  0.7761
 
              Baa    -0.0033    -1.766    -0.630    -0.589 -0.4144 -0.3926  0.8210
    52 H(1)   Bbb    -0.0028    -1.520    -0.542    -0.507 -0.3096  0.9092  0.2785
              Bcc     0.0062     3.286     1.173     1.096  0.8558  0.1388  0.4983
 
              Baa    -0.0038    -0.510    -0.182    -0.170 -0.1625  0.1208  0.9793
    53 C(13)  Bbb    -0.0037    -0.495    -0.177    -0.165  0.4122  0.9100 -0.0439
              Bcc     0.0075     1.005     0.359     0.335  0.8965 -0.3965  0.1976
 
              Baa    -0.0016    -0.861    -0.307    -0.287  0.3272  0.9186  0.2217
    54 H(1)   Bbb    -0.0013    -0.684    -0.244    -0.228 -0.5007 -0.0305  0.8651
              Bcc     0.0029     1.545     0.551     0.515  0.8014 -0.3941  0.4500
 
              Baa    -0.0020    -1.081    -0.386    -0.360 -0.0181  0.6663  0.7455
    55 H(1)   Bbb    -0.0017    -0.888    -0.317    -0.296  0.2672  0.7217 -0.6385
              Bcc     0.0037     1.969     0.702     0.657  0.9635 -0.1876  0.1910
 
              Baa    -0.0020    -1.081    -0.386    -0.361 -0.4645 -0.5391  0.7026
    56 H(1)   Bbb    -0.0018    -0.955    -0.341    -0.318  0.3308  0.6304  0.7023
              Bcc     0.0038     2.036     0.727     0.679  0.8215 -0.5586  0.1145
 
              Baa    -0.0043    -0.573    -0.205    -0.191 -0.3715  0.4617  0.8055
    57 C(13)  Bbb    -0.0038    -0.508    -0.181    -0.169  0.7358  0.6755 -0.0478
              Bcc     0.0081     1.081     0.386     0.361  0.5662 -0.5749  0.5906
 
              Baa    -0.0035    -1.888    -0.674    -0.630 -0.2891  0.2989  0.9094
    58 H(1)   Bbb    -0.0028    -1.494    -0.533    -0.498  0.7894  0.6118  0.0499
              Bcc     0.0063     3.382     1.207     1.128 -0.5415  0.7323 -0.4128
 
              Baa    -0.0069    -3.684    -1.315    -1.229  0.7639 -0.2489 -0.5954
    59 H(1)   Bbb    -0.0060    -3.196    -1.140    -1.066  0.5245  0.7770  0.3481
              Bcc     0.0129     6.880     2.455     2.295  0.3760 -0.5782  0.7241
 
              Baa    -0.0023    -1.233    -0.440    -0.411 -0.1480  0.7277  0.6698
    60 H(1)   Bbb    -0.0021    -1.133    -0.404    -0.378  0.8365  0.4534 -0.3077
              Bcc     0.0044     2.366     0.844     0.789  0.5276 -0.5147  0.6758
 
              Baa    -0.0054    -0.720    -0.257    -0.240  0.7480 -0.1416  0.6484
    61 C(13)  Bbb    -0.0045    -0.610    -0.218    -0.203  0.0136  0.9800  0.1984
              Bcc     0.0099     1.330     0.475     0.444 -0.6635 -0.1395  0.7350
 
              Baa    -0.0085    -4.520    -1.613    -1.508  0.5703  0.4350  0.6968
    62 H(1)   Bbb    -0.0061    -3.254    -1.161    -1.086 -0.5631  0.8246 -0.0539
              Bcc     0.0146     7.775     2.774     2.593 -0.5980 -0.3616  0.7153
 
              Baa    -0.0047    -2.501    -0.892    -0.834  0.8571 -0.0075  0.5150
    63 H(1)   Bbb    -0.0040    -2.119    -0.756    -0.707  0.0245  0.9994 -0.0262
              Bcc     0.0087     4.619     1.648     1.541 -0.5145  0.0351  0.8568
 
              Baa    -0.0026    -1.373    -0.490    -0.458  0.5301  0.5159  0.6729
    64 H(1)   Bbb    -0.0021    -1.104    -0.394    -0.368 -0.5109  0.8277 -0.2322
              Bcc     0.0046     2.478     0.884     0.826 -0.6767 -0.2207  0.7024
 
              Baa    -0.0042    -0.563    -0.201    -0.188 -0.1624  0.7117 -0.6835
    65 C(13)  Bbb    -0.0040    -0.539    -0.192    -0.180  0.5151  0.6519  0.5565
              Bcc     0.0082     1.102     0.393     0.367  0.8416 -0.2617 -0.4725
 
              Baa    -0.0021    -1.133    -0.404    -0.378  0.3314  0.6422  0.6911
    66 H(1)   Bbb    -0.0017    -0.899    -0.321    -0.300  0.0832  0.7098 -0.6995
              Bcc     0.0038     2.032     0.725     0.678  0.9398 -0.2893 -0.1818
 
              Baa    -0.0018    -0.957    -0.341    -0.319  0.4692  0.1410  0.8718
    67 H(1)   Bbb    -0.0011    -0.611    -0.218    -0.204 -0.0682  0.9900 -0.1234
              Bcc     0.0029     1.568     0.560     0.523  0.8805  0.0015 -0.4741
 
              Baa    -0.0024    -1.262    -0.450    -0.421  0.3498 -0.5170  0.7813
    68 H(1)   Bbb    -0.0017    -0.916    -0.327    -0.305  0.5593  0.7843  0.2686
              Bcc     0.0041     2.178     0.777     0.726  0.7516 -0.3430 -0.5634
 
              Baa    -0.0040    -0.543    -0.194    -0.181  0.1800 -0.1707  0.9687
    69 C(13)  Bbb    -0.0023    -0.315    -0.112    -0.105 -0.2275  0.9509  0.2099
              Bcc     0.0064     0.858     0.306     0.286  0.9570  0.2582 -0.1323
 
              Baa    -0.0023    -1.205    -0.430    -0.402  0.3049 -0.1088  0.9461
    70 H(1)   Bbb    -0.0017    -0.933    -0.333    -0.311 -0.3154  0.9259  0.2082
              Bcc     0.0040     2.138     0.763     0.713  0.8986  0.3618 -0.2480
 
              Baa    -0.0025    -1.313    -0.468    -0.438  0.0208 -0.4737  0.8804
    71 H(1)   Bbb    -0.0022    -1.166    -0.416    -0.389 -0.2047  0.8599  0.4676
              Bcc     0.0046     2.478     0.884     0.827  0.9786  0.1899  0.0791
 
              Baa    -0.0055    -2.912    -1.039    -0.971  0.0711 -0.1303  0.9889
    72 H(1)   Bbb    -0.0041    -2.211    -0.789    -0.738 -0.4505  0.8804  0.1484
              Bcc     0.0096     5.123     1.828     1.709  0.8900  0.4560 -0.0039
 
              Baa    -0.2724    19.709     7.033     6.574  0.0652 -0.0672  0.9956
    73 O(17)  Bbb    -0.0385     2.786     0.994     0.929  0.9974 -0.0258 -0.0671
              Bcc     0.3109   -22.495    -8.027    -7.504  0.0302  0.9974  0.0654
 
              Baa    -0.0545    -7.313    -2.609    -2.439  0.1642  0.9861  0.0255
    74 C(13)  Bbb    -0.0385    -5.171    -1.845    -1.725  0.9855 -0.1629 -0.0470
              Bcc     0.0930    12.484     4.455     4.164  0.0422 -0.0328  0.9986
 
              Baa    -0.0237   -12.672    -4.522    -4.227  0.9977  0.0155 -0.0666
    75 H(1)   Bbb    -0.0039    -2.079    -0.742    -0.694 -0.0472  0.8603 -0.5077
              Bcc     0.0276    14.751     5.264     4.920  0.0494  0.5096  0.8590
 
              Baa    -0.0736     5.324     1.900     1.776  0.0256  0.9991  0.0347
    76 O(17)  Bbb    -0.0339     2.450     0.874     0.817  0.9982 -0.0237 -0.0555
              Bcc     0.1074    -7.774    -2.774    -2.593  0.0546 -0.0360  0.9979
 

 ---------------------------------------------------------------------------------

 Unable to Open any file for archive entry.
 1\1\GINC-NODE110\SP\UB3LYP\def2SVP\C24H45N1O3P2Ru1(3)\DO57CIG\16-Jan-2
 025\0\\# ub3lyp scrf=(smd,solvent=water) def2svp empiricaldispersion=g
 d3bj int=ultrafine scf=xqc guess=read\\A_Ru_Cis_DFT_B3LYP_def2svp_smd_
 water_T_Opt_3MLCT_from_3MLCT_trans\\0,3\P,0,2.412868,-0.094449,-0.1442
 65\N,0,-0.014745,1.67011,-0.067832\C,0,2.18893,1.497128,-1.074514\H,0,
 3.113566,2.087781,-1.109246\H,0,1.953738,1.189827,-2.107226\O,0,-0.142
 639,-1.080228,-2.140182\P,0,-2.428322,-0.088089,0.052854\C,0,1.054182,
 2.32638,-0.534279\C,0,1.114542,3.72489,-0.504876\H,0,1.992958,4.241783
 ,-0.894696\C,0,0.04121,4.42916,0.042209\H,0,0.062461,5.520526,0.084666
 \C,0,-1.057448,3.726797,0.538424\H,0,-1.91242,4.245906,0.974803\C,0,-1
 .05312,2.328339,0.459942\C,0,-2.212963,1.510172,0.968938\H,0,-3.132233
 ,2.11112,0.970919\H,0,-2.011577,1.219289,2.014087\Ru,0,-0.01216227,-1.
 01070848,-0.05203733\H,0,0.692632,-1.43269,-2.464648\C,0,-3.251867,0.4
 14832,-1.597843\C,0,-3.689242,-1.026507,1.141738\C,0,3.672968,-1.03308
 4,-1.235163\C,0,3.23895,0.41126,1.50261\C,0,2.316777,1.435151,2.194192
 \H,0,2.315062,2.400477,1.671025\H,0,1.27969,1.092861,2.284222\H,0,2.70
 2246,1.612888,3.211336\C,0,3.382488,-0.831614,2.403768\H,0,3.521161,-0
 .503169,3.446828\H,0,2.501202,-1.483887,2.374833\H,0,4.256058,-1.43457
 8,2.131644\C,0,4.614888,1.069055,1.328299\H,0,4.960743,1.42544,2.3136\
 H,0,5.368667,0.364833,0.953429\H,0,4.578807,1.940314,0.657466\C,0,4.74
 511,-0.114754,-1.842777\H,0,5.322707,0.432533,-1.089586\H,0,5.451726,-
 0.73695,-2.41789\H,0,4.308508,0.612477,-2.542041\C,0,4.330706,-2.15353
 1,-0.417947\H,0,4.873638,-2.822089,-1.106183\H,0,5.057683,-1.766837,0.
 307096\H,0,3.584063,-2.758676,0.11881\C,0,2.906494,-1.687136,-2.394227
 \H,0,2.185308,-2.432688,-2.030052\H,0,2.39151,-0.942841,-3.019376\H,0,
 3.627573,-2.211705,-3.042014\C,0,-3.305865,-0.812024,-2.526736\H,0,-3.
 622781,-0.480335,-3.530174\H,0,-2.318534,-1.282973,-2.614999\H,0,-4.02
 9577,-1.561929,-2.187181\C,0,-4.659288,1.003095,-1.433168\H,0,-5.00036
 6,1.37308,-2.415293\H,0,-5.388741,0.25561,-1.095253\H,0,-4.677611,1.85
 4828,-0.736724\C,0,-2.365234,1.487083,-2.258986\H,0,-2.389092,2.438805
 ,-1.710576\H,0,-1.322309,1.164388,-2.356179\H,0,-2.758542,1.681744,-3.
 270545\C,0,-2.923237,-1.658418,2.312524\H,0,-2.185951,-2.395359,1.9665
 45\H,0,-2.408753,-0.907964,2.926963\H,0,-3.645996,-2.180454,2.961255\C
 ,0,-4.776892,-0.114107,1.731119\H,0,-5.362472,0.410039,0.968029\H,0,-5
 .474454,-0.736122,2.317381\H,0,-4.352501,0.632985,2.417059\C,0,-4.3270
 81,-2.163039,0.330299\H,0,-4.882085,-2.821634,1.018632\H,0,-5.039442,-
 1.794447,-0.418833\H,0,-3.566315,-2.775045,-0.178514\O,0,0.0286531,-3.
 79613252,-0.33443245\C,0,0.05929373,-1.04636848,1.76684967\H,0,-0.0347
 099,-3.79822052,-1.30524045\O,0,0.12707673,-1.08763748,2.93618267\\Ver
 sion=ES64L-G16RevC.02\State=3-A\HF=-1998.9215249\S2=2.022968\S2-1=0.\S
 2A=2.000296\RMSD=2.479e-09\Dipole=0.8527938,7.2292229,0.2693174\Quadru
 pole=34.8097143,-23.0996358,-11.7100786,-1.3295386,-8.9724447,2.256976
 7\PG=C01 [X(C24H45N1O3P2Ru1)]\\@
 The archive entry for this job was punched.


 BOOKS ARE LIGHTHOUSES ERECTED IN THE GREAT SEA OF TIME.
     -- E.P.WHIPPLE
 Job cpu time:       0 days  2 hours 45 minutes 46.1 seconds.
 Elapsed time:       0 days  0 hours  7 minutes 32.0 seconds.
 File lengths (MBytes):  RWF=    829 Int=      0 D2E=      0 Chk=     67 Scr=      1
 Normal termination of Gaussian 16 at Thu Jan 16 18:22:58 2025.
