 Entering Gaussian System, Link 0=g16
 Input=A_Ru_Cis_CO_straight_DFT_B3LYP_def2SVP_smd_water_T_TDDFT_100.gjf
 Output=A_Ru_Cis_CO_straight_DFT_B3LYP_def2SVP_smd_water_T_TDDFT_100.log
 Initial command:
 /cluster/apps/gaussian/g16_c02/g16/l1.exe "/beegfs/do57cig/gauss2163505/Gau-685407.inp" -scrdir="/beegfs/do57cig/gauss2163505/"
 Default CPUs for threads: 0-23
 Default is to use a total of  24 processors:
                               24 via shared-memory
                                1 via Linda
 Entering Link 1 = /cluster/apps/gaussian/g16_c02/g16/l1.exe PID=    685408.
  
 Copyright (c) 1988-2021, Gaussian, Inc.  All Rights Reserved.
  
 This is part of the Gaussian(R) 16 program.  It is based on
 the Gaussian(R) 09 system (copyright 2009, Gaussian, Inc.),
 the Gaussian(R) 03 system (copyright 2003, Gaussian, Inc.),
 the Gaussian(R) 98 system (copyright 1998, Gaussian, Inc.),
 the Gaussian(R) 94 system (copyright 1995, Gaussian, Inc.),
 the Gaussian 92(TM) system (copyright 1992, Gaussian, Inc.),
 the Gaussian 90(TM) system (copyright 1990, Gaussian, Inc.),
 the Gaussian 88(TM) system (copyright 1988, Gaussian, Inc.),
 the Gaussian 86(TM) system (copyright 1986, Carnegie Mellon
 University), and the Gaussian 82(TM) system (copyright 1983,
 Carnegie Mellon University). Gaussian is a federally registered
 trademark of Gaussian, Inc.
  
 This software contains proprietary and confidential information,
 including trade secrets, belonging to Gaussian, Inc.
  
 This software is provided under written license and may be
 used, copied, transmitted, or stored only in accord with that
 written license.
  
 The following legend is applicable only to US Government
 contracts under FAR:
  
                    RESTRICTED RIGHTS LEGEND
  
 Use, reproduction and disclosure by the US Government is
 subject to restrictions as set forth in subparagraphs (a)
 and (c) of the Commercial Computer Software - Restricted
 Rights clause in FAR 52.227-19.
  
 Gaussian, Inc.
 340 Quinnipiac St., Bldg. 40, Wallingford CT 06492
  
  
 ---------------------------------------------------------------
 Warning -- This program may not be used in any manner that
 competes with the business of Gaussian, Inc. or will provide
 assistance to any competitor of Gaussian, Inc.  The licensee
 of this program is prohibited from giving any competitor of
 Gaussian, Inc. access to this program.  By using this program,
 the user acknowledges that Gaussian, Inc. is engaged in the
 business of creating and licensing software in the field of
 computational chemistry and represents and warrants to the
 licensee that it is not a competitor of Gaussian, Inc. and that
 it will not use this program in any manner prohibited above.
 ---------------------------------------------------------------
  

 Cite this work as:
 Gaussian 16, Revision C.02,
 M. J. Frisch, G. W. Trucks, H. B. Schlegel, G. E. Scuseria, 
 M. A. Robb, J. R. Cheeseman, G. Scalmani, V. Barone, 
 G. A. Petersson, H. Nakatsuji, X. Li, M. Caricato, A. V. Marenich, 
 J. Bloino, B. G. Janesko, R. Gomperts, B. Mennucci, H. P. Hratchian, 
 J. V. Ortiz, A. F. Izmaylov, J. L. Sonnenberg, D. Williams-Young, 
 F. Ding, F. Lipparini, F. Egidi, J. Goings, B. Peng, A. Petrone, 
 T. Henderson, D. Ranasinghe, V. G. Zakrzewski, J. Gao, N. Rega, 
 G. Zheng, W. Liang, M. Hada, M. Ehara, K. Toyota, R. Fukuda, 
 J. Hasegawa, M. Ishida, T. Nakajima, Y. Honda, O. Kitao, H. Nakai, 
 T. Vreven, K. Throssell, J. A. Montgomery, Jr., J. E. Peralta, 
 F. Ogliaro, M. J. Bearpark, J. J. Heyd, E. N. Brothers, K. N. Kudin, 
 V. N. Staroverov, T. A. Keith, R. Kobayashi, J. Normand, 
 K. Raghavachari, A. P. Rendell, J. C. Burant, S. S. Iyengar, 
 J. Tomasi, M. Cossi, J. M. Millam, M. Klene, C. Adamo, R. Cammi, 
 J. W. Ochterski, R. L. Martin, K. Morokuma, O. Farkas, 
 J. B. Foresman, and D. J. Fox, Gaussian, Inc., Wallingford CT, 2019.
 
 ******************************************
 Gaussian 16:  ES64L-G16RevC.02  7-Dec-2021
                28-Nov-2024 
 ******************************************
 %chk=A_Ru_Cis_CO_straight_DFT_B3LYP_def2svp_smd_water_T_TDDFT_100.chk
 %Oldchk=A_Ru_cis_CO_straight_DFT_B3LYP_def2svp_smd_water_T_Freq.chk
 SetSPE:  set environment variable "OMP_PROC_BIND" = "true"
 SetSPE:  set environment variable "OMP_PLACES" = "{0},{1},{2},{3},{4},{5},{6},{7},{8},{9},{10},{11},{12},{13},{14},{15},{16},{17},{18},{19},{20},{21},{22},{23}"
 Copying data from "A_Ru_cis_CO_straight_DFT_B3LYP_def2svp_smd_water_T_Freq.chk" to current chk file "A_Ru_Cis_CO_straight_DFT_B3LYP_def2svp_smd_water_T_TDDFT_100.chk"
 IOpt=  2 FromEx=T IUOpen= 4 IOptOp= 5 NList=   0 IFRang= 0 IUIn= 4 IUOut= 2.
 ----------------------------------------------------------------------
 # td=(triplets,nstates=100,conver=3) b3lyp scrf=(smd,solvent=water) de
 f2svp empiricaldispersion=gd3bj int=ultrafine scf=xqc guess=read geom=
 check
 ----------------------------------------------------------------------
 1/29=2,38=1,172=1/1;
 2/12=2,40=1/2;
 3/5=43,7=101,11=9,14=-4,25=1,30=1,70=32201,72=1,74=-5,75=-5,116=-2,124=41/1,2,3,8;
 4/5=1/1;
 5/5=2,8=3,13=1,38=6,53=1/2,8;
 8/6=1,10=1,108=100/1;
 9/9=3,41=100,42=1,48=3,70=2/14;
 6/7=2,8=2,9=2,10=2/1;
 99/5=1,9=1/99;
 ------------------------------------------------------------
 A_Ru_Cis_CO_straight_DFT_B3LYP_def2svp_smd_water_T_TDDFT_100
 ------------------------------------------------------------
 Structure from the checkpoint file:  "A_Ru_Cis_CO_straight_DFT_B3LYP_def2svp_smd_water_T_TDDFT_100.chk"
 Charge =  0 Multiplicity = 3
 Redundant internal coordinates found in file.  (old form).
 P,0,2.4007684441,-0.1283876599,-0.1458070148
 N,0,-0.0590148432,1.4922027612,-0.0815395461
 C,0,2.1576631475,1.4014838125,-1.156791157
 H,0,3.0807680784,1.9899010063,-1.2436428787
 H,0,1.8990840035,1.0147362923,-2.157461887
 O,0,-0.1231265358,-0.7582270664,-2.0399349408
 P,0,-2.4350247694,-0.1208053887,0.1362613158
 C,0,1.0419405367,2.2117562946,-0.5677308961
 C,0,1.1327018815,3.5807180722,-0.4463114406
 H,0,2.022910386,4.073084821,-0.8461040386
 C,0,0.1143415839,4.3347870049,0.1936184152
 H,0,0.1788332895,5.4183424777,0.2964603196
 C,0,-0.9888618662,3.5974800184,0.7038825377
 H,0,-1.8198462099,4.1083535271,1.1974886829
 C,0,-1.056272472,2.2291569978,0.5697914102
 C,0,-2.2429657816,1.4524851643,1.0773539078
 H,0,-3.1599526082,2.0575691893,1.0533874519
 H,0,-2.0896200355,1.1370245674,2.1245069642
 Ru,0,-0.0281868914,-0.6611981448,0.0435464324
 H,0,0.6093844899,-1.3114521337,-2.3298777024
 C,0,-3.2791497568,0.3361712256,-1.5096182255
 C,0,-3.5760864175,-1.2156116361,1.2028188749
 C,0,3.5368001355,-1.2553281324,-1.1893795459
 C,0,3.2770760982,0.3846574512,1.4666387977
 C,0,2.4812886103,1.538945512,2.1091357273
 H,0,2.5725769192,2.4621341499,1.524908449
 H,0,1.4143588161,1.3280822926,2.2351419039
 H,0,2.9060092836,1.7257662128,3.1085430197
 C,0,3.3313133515,-0.8157356231,2.4336142873
 H,0,3.488069305,-0.4410226958,3.4578233403
 H,0,2.4103357151,-1.4117986121,2.435444681
 H,0,4.1627751131,-1.4897447488,2.1993666364
 C,0,4.7011876159,0.9051186254,1.2173108182
 H,0,5.0960403288,1.2981472415,2.1689459998
 H,0,5.3849319805,0.1157955207,0.8811907752
 H,0,4.7170312995,1.726994858,0.4863591982
 C,0,4.6484376037,-0.4359733817,-1.8668427026
 H,0,5.2919870015,0.0927897078,-1.1557777802
 H,0,5.284564046,-1.1304280124,-2.440739535
 H,0,4.2368633938,0.2949973773,-2.5773807817
 C,0,4.1374144103,-2.3630874836,-0.3125936567
 H,0,4.6341590467,-3.0958427789,-0.9690616393
 H,0,4.8931559299,-1.9824760995,0.3849898912
 H,0,3.3632914715,-2.8965442473,0.2595457765
 C,0,2.7164872598,-1.9286442701,-2.2984578207
 H,0,1.9223040733,-2.5686830021,-1.8893470538
 H,0,2.2917086356,-1.1958823875,-2.998973556
 H,0,3.3918963879,-2.5752970354,-2.8812055634
 C,0,-3.2503007059,-0.8655945507,-2.4697489871
 H,0,-3.5966196771,-0.5275215423,-3.4609520748
 H,0,-2.2297305933,-1.2549493757,-2.5726937035
 H,0,-3.9157403862,-1.6750635534,-2.148564288
 C,0,-4.7275086369,0.8027727576,-1.3015340642
 H,0,-5.1062104374,1.1782351552,-2.2669042128
 H,0,-5.3910999745,-0.0120103874,-0.9851024988
 H,0,-4.8022491864,1.6256744558,-0.5751081636
 C,0,-2.4949681948,1.5011926606,-2.1417819688
 H,0,-2.5581797945,2.4151671987,-1.5355925896
 H,0,-1.4391926963,1.2543423496,-2.2905056076
 H,0,-2.9470268155,1.7182167045,-3.1235087185
 C,0,-2.7615550487,-1.8099058509,2.3602168802
 H,0,-1.9348412568,-2.4398251216,2.0063636487
 H,0,-2.363171924,-1.0332715688,3.0249058741
 H,0,-3.4346430034,-2.4433708269,2.9604675034
 C,0,-4.7258967581,-0.3976698749,1.8160428501
 H,0,-5.3801620123,0.0592447303,1.0663116017
 H,0,-5.3431141541,-1.0774632826,2.4269562809
 H,0,-4.3518155763,0.3925943862,2.4826523288
 C,0,-4.1279790341,-2.3757247875,0.3622534425
 H,0,-4.6355218329,-3.0848520923,1.0362415426
 H,0,-4.86428942,-2.0418169305,-0.3796500829
 H,0,-3.3250815275,-2.9215165302,-0.1561432634
 O,0,-0.1852189051,-2.6339206096,-0.0814946058
 C,0,0.0388804185,-0.6645192678,1.8836098042
 H,0,-0.2506078366,-2.7409748387,-1.0486105173
 O,0,0.1004481643,-0.6737245978,3.0421402482
 Recover connectivity data from disk.
                           ----------------------------
                           !    Current Parameters    !
                           ! (Angstroms and Degrees)  !
 --------------------------                            --------------------------
 ! Name  Definition              Value                                          !
 --------------------------------------------------------------------------------
 ! R1    R(1,3)                  1.8498                                         !
 ! R2    R(1,19)                 2.4939                                         !
 ! R3    R(1,23)                 1.9104                                         !
 ! R4    R(1,24)                 1.9055                                         !
 ! R5    R(2,8)                  1.4022                                         !
 ! R6    R(2,15)                 1.4007                                         !
 ! R7    R(2,19)                 2.1573                                         !
 ! R8    R(3,4)                  1.0981                                         !
 ! R9    R(3,5)                  1.1035                                         !
 ! R10   R(3,8)                  1.4995                                         !
 ! R11   R(6,19)                 2.0879                                         !
 ! R12   R(6,20)                 0.9627                                         !
 ! R13   R(7,16)                 1.8433                                         !
 ! R14   R(7,19)                 2.4685                                         !
 ! R15   R(7,21)                 1.9053                                         !
 ! R16   R(7,22)                 1.9074                                         !
 ! R17   R(8,9)                  1.3773                                         !
 ! R18   R(9,10)                 1.093                                          !
 ! R19   R(9,11)                 1.4196                                         !
 ! R20   R(11,12)                1.0903                                         !
 ! R21   R(11,13)                1.4216                                         !
 ! R22   R(13,14)                1.0932                                         !
 ! R23   R(13,15)                1.3765                                         !
 ! R24   R(15,16)                1.5063                                         !
 ! R25   R(16,17)                1.0989                                         !
 ! R26   R(16,18)                1.1043                                         !
 ! R27   R(19,73)                1.9829                                         !
 ! R28   R(19,74)                1.8413                                         !
 ! R29   R(21,49)                1.5385                                         !
 ! R30   R(21,53)                1.5358                                         !
 ! R31   R(21,57)                1.5401                                         !
 ! R32   R(22,61)                1.535                                          !
 ! R33   R(22,65)                1.5386                                         !
 ! R34   R(22,69)                1.5353                                         !
 ! R35   R(23,37)                1.5382                                         !
 ! R36   R(23,41)                1.5351                                         !
 ! R37   R(23,45)                1.535                                          !
 ! R38   R(24,25)                1.5422                                         !
 ! R39   R(24,29)                1.5424                                         !
 ! R40   R(24,33)                1.5366                                         !
 ! R41   R(25,26)                1.0963                                         !
 ! R42   R(25,27)                1.0948                                         !
 ! R43   R(25,28)                1.1019                                         !
 ! R44   R(29,30)                1.1018                                         !
 ! R45   R(29,31)                1.097                                          !
 ! R46   R(29,32)                1.0957                                         !
 ! R47   R(33,34)                1.1027                                         !
 ! R48   R(33,35)                1.097                                          !
 ! R49   R(33,36)                1.1                                            !
 ! R50   R(37,38)                1.0952                                         !
 ! R51   R(37,39)                1.1029                                         !
 ! R52   R(37,40)                1.0994                                         !
 ! R53   R(41,42)                1.1021                                         !
 ! R54   R(41,43)                1.0966                                         !
 ! R55   R(41,44)                1.1005                                         !
 ! R56   R(45,46)                1.099                                          !
 ! R57   R(45,47)                1.0991                                         !
 ! R58   R(45,48)                1.1018                                         !
 ! R59   R(49,50)                1.103                                          !
 ! R60   R(49,51)                1.0972                                         !
 ! R61   R(49,52)                1.096                                          !
 ! R62   R(53,54)                1.1029                                         !
 ! R63   R(53,55)                1.0974                                         !
 ! R64   R(53,56)                1.1002                                         !
 ! R65   R(57,58)                1.0985                                         !
 ! R66   R(57,59)                1.0944                                         !
 ! R67   R(57,60)                1.1024                                         !
 ! R68   R(61,62)                1.0979                                         !
 ! R69   R(61,63)                1.0971                                         !
 ! R70   R(61,64)                1.1021                                         !
 ! R71   R(65,66)                1.095                                          !
 ! R72   R(65,67)                1.1029                                         !
 ! R73   R(65,68)                1.0995                                         !
 ! R74   R(69,70)                1.1021                                         !
 ! R75   R(69,71)                1.0973                                         !
 ! R76   R(69,72)                1.1006                                         !
 ! R77   R(73,75)                0.9752                                         !
 ! R78   R(74,76)                1.1602                                         !
 ! A1    A(3,1,19)              95.1747                                         !
 ! A2    A(3,1,23)             105.5142                                         !
 ! A3    A(3,1,24)             107.472                                          !
 ! A4    A(19,1,23)            119.6445                                         !
 ! A5    A(19,1,24)            116.1785                                         !
 ! A6    A(23,1,24)            110.3402                                         !
 ! A7    A(8,2,15)             116.7603                                         !
 ! A8    A(8,2,19)             121.4073                                         !
 ! A9    A(15,2,19)            120.5586                                         !
 ! A10   A(1,3,4)              112.0808                                         !
 ! A11   A(1,3,5)              103.6825                                         !
 ! A12   A(1,3,8)              109.269                                          !
 ! A13   A(4,3,5)              108.2428                                         !
 ! A14   A(4,3,8)              111.531                                          !
 ! A15   A(5,3,8)              111.7934                                         !
 ! A16   A(19,6,20)            107.0173                                         !
 ! A17   A(16,7,19)             95.9945                                         !
 ! A18   A(16,7,21)            106.4081                                         !
 ! A19   A(16,7,22)            105.4709                                         !
 ! A20   A(19,7,21)            116.8738                                         !
 ! A21   A(19,7,22)            118.5963                                         !
 ! A22   A(21,7,22)            110.8335                                         !
 ! A23   A(2,8,3)              116.304                                          !
 ! A24   A(2,8,9)              122.0869                                         !
 ! A25   A(3,8,9)              121.5131                                         !
 ! A26   A(8,9,10)             117.9788                                         !
 ! A27   A(8,9,11)             121.3614                                         !
 ! A28   A(10,9,11)            120.6541                                         !
 ! A29   A(9,11,12)            121.869                                          !
 ! A30   A(9,11,13)            116.295                                          !
 ! A31   A(12,11,13)           121.8336                                         !
 ! A32   A(11,13,14)           120.6341                                         !
 ! A33   A(11,13,15)           121.237                                          !
 ! A34   A(14,13,15)           118.1171                                         !
 ! A35   A(2,15,13)            122.2383                                         !
 ! A36   A(2,15,16)            116.5071                                         !
 ! A37   A(13,15,16)           121.2171                                         !
 ! A38   A(7,16,15)            110.495                                          !
 ! A39   A(7,16,17)            111.8323                                         !
 ! A40   A(7,16,18)            104.7597                                         !
 ! A41   A(15,16,17)           111.4774                                         !
 ! A42   A(15,16,18)           110.9403                                         !
 ! A43   A(17,16,18)           107.0882                                         !
 ! A44   A(1,19,2)              78.2438                                         !
 ! A45   A(1,19,6)              88.7652                                         !
 ! A46   A(1,19,7)             154.919                                          !
 ! A47   A(1,19,73)            106.5523                                         !
 ! A48   A(1,19,74)             92.3375                                         !
 ! A49   A(2,19,6)              89.3054                                         !
 ! A50   A(2,19,7)              76.6864                                         !
 ! A51   A(2,19,74)             93.4551                                         !
 ! A52   A(6,19,7)              90.1901                                         !
 ! A53   A(6,19,73)             83.5255                                         !
 ! A54   A(7,19,73)             98.2183                                         !
 ! A55   A(7,19,74)             89.9069                                         !
 ! A56   A(73,19,74)            93.6756                                         !
 ! A57   A(7,21,49)            110.0865                                         !
 ! A58   A(7,21,53)            111.9397                                         !
 ! A59   A(7,21,57)            108.085                                          !
 ! A60   A(49,21,53)           109.8499                                         !
 ! A61   A(49,21,57)           108.9771                                         !
 ! A62   A(53,21,57)           107.8168                                         !
 ! A63   A(7,22,61)            109.0502                                         !
 ! A64   A(7,22,65)            111.3953                                         !
 ! A65   A(7,22,69)            110.0371                                         !
 ! A66   A(61,22,65)           107.5698                                         !
 ! A67   A(61,22,69)           108.1208                                         !
 ! A68   A(65,22,69)           110.5667                                         !
 ! A69   A(1,23,37)            110.862                                          !
 ! A70   A(1,23,41)            110.2635                                         !
 ! A71   A(1,23,45)            109.6119                                         !
 ! A72   A(37,23,41)           110.6819                                         !
 ! A73   A(37,23,45)           107.5559                                         !
 ! A74   A(41,23,45)           107.7714                                         !
 ! A75   A(1,24,25)            108.466                                          !
 ! A76   A(1,24,29)            109.7025                                         !
 ! A77   A(1,24,33)            112.3398                                         !
 ! A78   A(25,24,29)           109.8442                                         !
 ! A79   A(25,24,33)           106.9965                                         !
 ! A80   A(29,24,33)           109.4355                                         !
 ! A81   A(24,25,26)           111.425                                          !
 ! A82   A(24,25,27)           113.994                                          !
 ! A83   A(24,25,28)           107.8106                                         !
 ! A84   A(26,25,27)           107.7375                                         !
 ! A85   A(26,25,28)           107.9673                                         !
 ! A86   A(27,25,28)           107.6917                                         !
 ! A87   A(24,29,30)           108.8507                                         !
 ! A88   A(24,29,31)           113.228                                          !
 ! A89   A(24,29,32)           111.8027                                         !
 ! A90   A(30,29,31)           107.6181                                         !
 ! A91   A(30,29,32)           107.4564                                         !
 ! A92   A(31,29,32)           107.6495                                         !
 ! A93   A(24,33,34)           108.2131                                         !
 ! A94   A(24,33,35)           112.5597                                         !
 ! A95   A(24,33,36)           111.9772                                         !
 ! A96   A(34,33,35)           107.3182                                         !
 ! A97   A(34,33,36)           107.5776                                         !
 ! A98   A(35,33,36)           108.9659                                         !
 ! A99   A(23,37,38)           113.3222                                         !
 ! A100  A(23,37,39)           108.0965                                         !
 ! A101  A(23,37,40)           111.6095                                         !
 ! A102  A(38,37,39)           107.6349                                         !
 ! A103  A(38,37,40)           108.5791                                         !
 ! A104  A(39,37,40)           107.3554                                         !
 ! A105  A(23,41,42)           108.416                                          !
 ! A106  A(23,41,43)           112.4878                                         !
 ! A107  A(23,41,44)           111.8081                                         !
 ! A108  A(42,41,43)           107.4                                            !
 ! A109  A(42,41,44)           107.7235                                         !
 ! A110  A(43,41,44)           108.8009                                         !
 ! A111  A(23,45,46)           111.8808                                         !
 ! A112  A(23,45,47)           111.9985                                         !
 ! A113  A(23,45,48)           108.1794                                         !
 ! A114  A(46,45,47)           110.2576                                         !
 ! A115  A(46,45,48)           107.3422                                         !
 ! A116  A(47,45,48)           106.9234                                         !
 ! A117  A(21,49,50)           108.391                                          !
 ! A118  A(21,49,51)           110.6835                                         !
 ! A119  A(21,49,52)           112.498                                          !
 ! A120  A(50,49,51)           108.4514                                         !
 ! A121  A(50,49,52)           107.4021                                         !
 ! A122  A(51,49,52)           109.279                                          !
 ! A123  A(21,53,54)           107.9783                                         !
 ! A124  A(21,53,55)           112.5657                                         !
 ! A125  A(21,53,56)           112.3807                                         !
 ! A126  A(54,53,55)           107.3084                                         !
 ! A127  A(54,53,56)           107.4567                                         !
 ! A128  A(55,53,56)           108.8964                                         !
 ! A129  A(21,57,58)           111.9357                                         !
 ! A130  A(21,57,59)           112.1087                                         !
 ! A131  A(21,57,60)           107.7985                                         !
 ! A132  A(58,57,59)           108.5516                                         !
 ! A133  A(58,57,60)           107.6996                                         !
 ! A134  A(59,57,60)           108.6016                                         !
 ! A135  A(22,61,62)           112.2516                                         !
 ! A136  A(22,61,63)           112.0509                                         !
 ! A137  A(22,61,64)           108.0061                                         !
 ! A138  A(62,61,63)           109.1459                                         !
 ! A139  A(62,61,64)           107.7959                                         !
 ! A140  A(63,61,64)           107.3779                                         !
 ! A141  A(22,65,66)           113.2964                                         !
 ! A142  A(22,65,67)           108.1399                                         !
 ! A143  A(22,65,68)           111.6851                                         !
 ! A144  A(66,65,67)           107.5835                                         !
 ! A145  A(66,65,68)           108.5728                                         !
 ! A146  A(67,65,68)           107.314                                          !
 ! A147  A(22,69,70)           108.4766                                         !
 ! A148  A(22,69,71)           112.4238                                         !
 ! A149  A(22,69,72)           111.7389                                         !
 ! A150  A(70,69,71)           107.4722                                         !
 ! A151  A(70,69,72)           107.7532                                         !
 ! A152  A(71,69,72)           108.7818                                         !
 ! A153  A(19,73,75)           100.1983                                         !
 ! A154  L(2,19,73,1,-1)       184.796                                          !
 ! A155  L(6,19,74,1,-1)       181.1027                                         !
 ! A156  L(19,74,76,12,-1)     180.3179                                         !
 ! A157  L(2,19,73,1,-2)       187.5795                                         !
 ! A158  L(6,19,74,1,-2)       182.5921                                         !
 ! A159  L(19,74,76,12,-2)     180.9995                                         !
 ! D1    D(19,1,3,4)           168.7985                                         !
 ! D2    D(19,1,3,5)           -74.6854                                         !
 ! D3    D(19,1,3,8)            44.6478                                         !
 ! D4    D(23,1,3,4)           -68.4797                                         !
 ! D5    D(23,1,3,5)            48.0364                                         !
 ! D6    D(23,1,3,8)           167.3696                                         !
 ! D7    D(24,1,3,4)            49.2669                                         !
 ! D8    D(24,1,3,5)           165.7829                                         !
 ! D9    D(24,1,3,8)           -74.8839                                         !
 ! D10   D(3,1,19,2)           -30.4242                                         !
 ! D11   D(3,1,19,6)            59.1232                                         !
 ! D12   D(3,1,19,7)           -28.686                                          !
 ! D13   D(3,1,19,73)          141.9962                                         !
 ! D14   D(3,1,19,74)         -123.4688                                         !
 ! D15   D(23,1,19,2)         -141.5587                                         !
 ! D16   D(23,1,19,6)          -52.0112                                         !
 ! D17   D(23,1,19,7)         -139.8205                                         !
 ! D18   D(23,1,19,73)          30.8618                                         !
 ! D19   D(23,1,19,74)         125.3967                                         !
 ! D20   D(24,1,19,2)           81.9371                                         !
 ! D21   D(24,1,19,6)          171.4845                                         !
 ! D22   D(24,1,19,7)           83.6753                                         !
 ! D23   D(24,1,19,73)        -105.6425                                         !
 ! D24   D(24,1,19,74)         -11.1076                                         !
 ! D25   D(3,1,23,37)           40.8055                                         !
 ! D26   D(3,1,23,41)          163.734                                          !
 ! D27   D(3,1,23,45)          -77.7802                                         !
 ! D28   D(19,1,23,37)         146.2127                                         !
 ! D29   D(19,1,23,41)         -90.8587                                         !
 ! D30   D(19,1,23,45)          27.6271                                         !
 ! D31   D(24,1,23,37)         -74.9938                                         !
 ! D32   D(24,1,23,41)          47.9347                                         !
 ! D33   D(24,1,23,45)         166.4205                                         !
 ! D34   D(3,1,24,25)           52.2234                                         !
 ! D35   D(3,1,24,29)          172.2056                                         !
 ! D36   D(3,1,24,33)          -65.8379                                         !
 ! D37   D(19,1,24,25)         -52.8524                                         !
 ! D38   D(19,1,24,29)          67.1298                                         !
 ! D39   D(19,1,24,33)        -170.9138                                         !
 ! D40   D(23,1,24,25)         166.7898                                         !
 ! D41   D(23,1,24,29)         -73.228                                          !
 ! D42   D(23,1,24,33)          48.7284                                         !
 ! D43   D(15,2,8,3)           174.8841                                         !
 ! D44   D(15,2,8,9)            -1.602                                          !
 ! D45   D(19,2,8,3)             7.7109                                         !
 ! D46   D(19,2,8,9)          -168.7752                                         !
 ! D47   D(8,2,15,13)            1.5997                                         !
 ! D48   D(8,2,15,16)          179.395                                          !
 ! D49   D(19,2,15,13)         168.8884                                         !
 ! D50   D(19,2,15,16)         -13.3163                                         !
 ! D51   D(8,2,19,1)            18.0453                                         !
 ! D52   D(8,2,19,6)           -70.8379                                         !
 ! D53   D(8,2,19,7)          -161.1976                                         !
 ! D54   D(8,2,19,74)          109.7169                                         !
 ! D55   D(15,2,19,1)         -148.6459                                         !
 ! D56   D(15,2,19,6)          122.4709                                         !
 ! D57   D(15,2,19,7)           32.1112                                         !
 ! D58   D(15,2,19,74)         -56.9743                                         !
 ! D59   D(1,3,8,2)            -39.0748                                         !
 ! D60   D(1,3,8,9)            137.4332                                         !
 ! D61   D(4,3,8,2)           -163.5479                                         !
 ! D62   D(4,3,8,9)             12.9601                                         !
 ! D63   D(5,3,8,2)             75.1077                                         !
 ! D64   D(5,3,8,9)           -108.3843                                         !
 ! D65   D(20,6,19,1)           48.3851                                         !
 ! D66   D(20,6,19,2)          126.6405                                         !
 ! D67   D(20,6,19,7)         -156.6765                                         !
 ! D68   D(20,6,19,73)         -58.4269                                         !
 ! D69   D(19,7,16,15)          40.8693                                         !
 ! D70   D(19,7,16,17)         165.6771                                         !
 ! D71   D(19,7,16,18)         -78.6714                                         !
 ! D72   D(21,7,16,15)         -79.4441                                         !
 ! D73   D(21,7,16,17)          45.3637                                         !
 ! D74   D(21,7,16,18)         161.0152                                         !
 ! D75   D(22,7,16,15)         162.7684                                         !
 ! D76   D(22,7,16,17)         -72.4239                                         !
 ! D77   D(22,7,16,18)          43.2277                                         !
 ! D78   D(16,7,19,1)          -36.3262                                         !
 ! D79   D(16,7,19,2)          -34.5775                                         !
 ! D80   D(16,7,19,6)         -123.8187                                         !
 ! D81   D(16,7,19,73)         152.6956                                         !
 ! D82   D(16,7,19,74)          58.9953                                         !
 ! D83   D(21,7,19,1)           75.49                                           !
 ! D84   D(21,7,19,2)           77.2387                                         !
 ! D85   D(21,7,19,6)          -12.0026                                         !
 ! D86   D(21,7,19,73)         -95.4882                                         !
 ! D87   D(21,7,19,74)         170.8114                                         !
 ! D88   D(22,7,19,1)         -147.5938                                         !
 ! D89   D(22,7,19,2)         -145.845                                          !
 ! D90   D(22,7,19,6)          124.9137                                         !
 ! D91   D(22,7,19,73)          41.428                                          !
 ! D92   D(22,7,19,74)         -52.2723                                         !
 ! D93   D(16,7,21,49)         169.6847                                         !
 ! D94   D(16,7,21,53)         -67.8306                                         !
 ! D95   D(16,7,21,57)          50.7599                                         !
 ! D96   D(19,7,21,49)          63.9448                                         !
 ! D97   D(19,7,21,53)        -173.5705                                         !
 ! D98   D(19,7,21,57)         -54.98                                           !
 ! D99   D(22,7,21,49)         -76.1367                                         !
 ! D100  D(22,7,21,53)          46.348                                          !
 ! D101  D(22,7,21,57)         164.9385                                         !
 ! D102  D(16,7,22,61)         -77.5202                                         !
 ! D103  D(16,7,22,65)          41.0534                                         !
 ! D104  D(16,7,22,69)         164.0439                                         !
 ! D105  D(19,7,22,61)          28.3999                                         !
 ! D106  D(19,7,22,65)         146.9734                                         !
 ! D107  D(19,7,22,69)         -90.0361                                         !
 ! D108  D(21,7,22,61)         167.7132                                         !
 ! D109  D(21,7,22,65)         -73.7133                                         !
 ! D110  D(21,7,22,69)          49.2772                                         !
 ! D111  D(2,8,9,10)           179.7719                                         !
 ! D112  D(2,8,9,11)             0.6309                                         !
 ! D113  D(3,8,9,10)             3.467                                          !
 ! D114  D(3,8,9,11)          -175.6739                                         !
 ! D115  D(8,9,11,12)          179.8485                                         !
 ! D116  D(8,9,11,13)            0.3993                                         !
 ! D117  D(10,9,11,12)           0.7304                                         !
 ! D118  D(10,9,11,13)        -178.7188                                         !
 ! D119  D(9,11,13,14)        -179.1325                                         !
 ! D120  D(9,11,13,15)          -0.4036                                         !
 ! D121  D(12,11,13,14)          1.4181                                         !
 ! D122  D(12,11,13,15)       -179.853                                          !
 ! D123  D(11,13,15,2)          -0.6238                                         !
 ! D124  D(11,13,15,16)       -178.3168                                         !
 ! D125  D(14,13,15,2)         178.1361                                         !
 ! D126  D(14,13,15,16)          0.4431                                         !
 ! D127  D(2,15,16,7)          -23.5251                                         !
 ! D128  D(2,15,16,17)        -148.5348                                         !
 ! D129  D(2,15,16,18)          92.2126                                         !
 ! D130  D(13,15,16,7)         154.2944                                         !
 ! D131  D(13,15,16,17)         29.2847                                         !
 ! D132  D(13,15,16,18)        -89.968                                          !
 ! D133  D(1,19,73,75)         -87.7535                                         !
 ! D134  D(6,19,73,75)          -0.9841                                         !
 ! D135  D(7,19,73,75)          88.2701                                         !
 ! D136  D(74,19,73,75)        178.7074                                         !
 ! D137  D(7,21,49,50)        -171.1055                                         !
 ! D138  D(7,21,49,51)         -52.2868                                         !
 ! D139  D(7,21,49,52)          70.2848                                         !
 ! D140  D(53,21,49,50)         65.1858                                         !
 ! D141  D(53,21,49,51)       -175.9956                                         !
 ! D142  D(53,21,49,52)        -53.424                                          !
 ! D143  D(57,21,49,50)        -52.7279                                         !
 ! D144  D(57,21,49,51)         66.0907                                         !
 ! D145  D(57,21,49,52)       -171.3377                                         !
 ! D146  D(7,21,53,54)         172.4235                                         !
 ! D147  D(7,21,53,55)         -69.3102                                         !
 ! D148  D(7,21,53,56)          54.0838                                         !
 ! D149  D(49,21,53,54)        -64.9571                                         !
 ! D150  D(49,21,53,55)         53.3091                                         !
 ! D151  D(49,21,53,56)        176.7032                                         !
 ! D152  D(57,21,53,54)         53.6741                                         !
 ! D153  D(57,21,53,55)        171.9404                                         !
 ! D154  D(57,21,53,56)        -64.6655                                         !
 ! D155  D(7,21,57,58)         -65.3621                                         !
 ! D156  D(7,21,57,59)          56.9011                                         !
 ! D157  D(7,21,57,60)         176.3749                                         !
 ! D158  D(49,21,57,58)        175.011                                          !
 ! D159  D(49,21,57,59)        -62.7258                                         !
 ! D160  D(49,21,57,60)         56.748                                          !
 ! D161  D(53,21,57,58)         55.8227                                         !
 ! D162  D(53,21,57,59)        178.086                                          !
 ! D163  D(53,21,57,60)        -62.4402                                         !
 ! D164  D(7,22,61,62)         -60.9385                                         !
 ! D165  D(7,22,61,63)          62.2955                                         !
 ! D166  D(7,22,61,64)        -179.6377                                         !
 ! D167  D(65,22,61,62)        178.1201                                         !
 ! D168  D(65,22,61,63)        -58.6458                                         !
 ! D169  D(65,22,61,64)         59.4209                                         !
 ! D170  D(69,22,61,62)         58.6916                                         !
 ! D171  D(69,22,61,63)       -178.0744                                         !
 ! D172  D(69,22,61,64)        -60.0076                                         !
 ! D173  D(7,22,65,66)          61.4124                                         !
 ! D174  D(7,22,65,67)        -179.4319                                         !
 ! D175  D(7,22,65,68)         -61.5725                                         !
 ! D176  D(61,22,65,66)       -179.1308                                         !
 ! D177  D(61,22,65,67)        -59.9751                                         !
 ! D178  D(61,22,65,68)         57.8843                                         !
 ! D179  D(69,22,65,66)        -61.2745                                         !
 ! D180  D(69,22,65,67)         57.8812                                         !
 ! D181  D(69,22,65,68)        175.7406                                         !
 ! D182  D(7,22,69,70)         170.241                                          !
 ! D183  D(7,22,69,71)         -71.0514                                         !
 ! D184  D(7,22,69,72)          51.5989                                         !
 ! D185  D(61,22,69,70)         51.2348                                         !
 ! D186  D(61,22,69,71)        169.9424                                         !
 ! D187  D(61,22,69,72)        -67.4074                                         !
 ! D188  D(65,22,69,70)        -66.2835                                         !
 ! D189  D(65,22,69,71)         52.4241                                         !
 ! D190  D(65,22,69,72)        175.0744                                         !
 ! D191  D(1,23,37,38)          59.8461                                         !
 ! D192  D(1,23,37,39)         179.0526                                         !
 ! D193  D(1,23,37,40)         -63.1082                                         !
 ! D194  D(41,23,37,38)        -62.8401                                         !
 ! D195  D(41,23,37,39)         56.3664                                         !
 ! D196  D(41,23,37,40)        174.2056                                         !
 ! D197  D(45,23,37,38)        179.6685                                         !
 ! D198  D(45,23,37,39)        -61.125                                          !
 ! D199  D(45,23,37,40)         56.7142                                         !
 ! D200  D(1,23,41,42)         169.8724                                         !
 ! D201  D(1,23,41,43)         -71.5104                                         !
 ! D202  D(1,23,41,44)          51.264                                          !
 ! D203  D(37,23,41,42)        -67.0939                                         !
 ! D204  D(37,23,41,43)         51.5233                                         !
 ! D205  D(37,23,41,44)        174.2977                                         !
 ! D206  D(45,23,41,42)         50.2653                                         !
 ! D207  D(45,23,41,43)        168.8825                                         !
 ! D208  D(45,23,41,44)        -68.3431                                         !
 ! D209  D(1,23,45,46)         -61.6846                                         !
 ! D210  D(1,23,45,47)          62.6945                                         !
 ! D211  D(1,23,45,48)        -179.7174                                         !
 ! D212  D(37,23,45,46)        177.7017                                         !
 ! D213  D(37,23,45,47)        -57.9192                                         !
 ! D214  D(37,23,45,48)         59.6689                                         !
 ! D215  D(41,23,45,46)         58.335                                          !
 ! D216  D(41,23,45,47)       -177.2859                                         !
 ! D217  D(41,23,45,48)        -59.6978                                         !
 ! D218  D(1,24,25,26)         -70.0258                                         !
 ! D219  D(1,24,25,27)          52.1748                                         !
 ! D220  D(1,24,25,28)         171.6721                                         !
 ! D221  D(29,24,25,26)        170.0805                                         !
 ! D222  D(29,24,25,27)        -67.7188                                         !
 ! D223  D(29,24,25,28)         51.7784                                         !
 ! D224  D(33,24,25,26)         51.3807                                         !
 ! D225  D(33,24,25,27)        173.5813                                         !
 ! D226  D(33,24,25,28)        -66.9214                                         !
 ! D227  D(1,24,29,30)        -159.5205                                         !
 ! D228  D(1,24,29,31)         -39.8795                                         !
 ! D229  D(1,24,29,32)          81.9261                                         !
 ! D230  D(25,24,29,30)        -40.3825                                         !
 ! D231  D(25,24,29,31)         79.2585                                         !
 ! D232  D(25,24,29,32)       -158.9359                                         !
 ! D233  D(33,24,29,30)         76.8041                                         !
 ! D234  D(33,24,29,31)       -163.5549                                         !
 ! D235  D(33,24,29,32)        -41.7494                                         !
 ! D236  D(1,24,33,34)         173.0099                                         !
 ! D237  D(1,24,33,35)         -68.5631                                         !
 ! D238  D(1,24,33,36)          54.6099                                         !
 ! D239  D(25,24,33,34)         54.0829                                         !
 ! D240  D(25,24,33,35)        172.5099                                         !
 ! D241  D(25,24,33,36)        -64.3171                                         !
 ! D242  D(29,24,33,34)        -64.8819                                         !
 ! D243  D(29,24,33,35)         53.5451                                         !
 ! D244  D(29,24,33,36)        176.7181                                         !
 --------------------------------------------------------------------------------
 Stoichiometry    C24H45NO3P2Ru(3)
 Framework group  C1[X(C24H45NO3P2Ru)]
 Deg. of freedom   222
 Full point group                 C1      NOp   1
 Largest Abelian subgroup         C1      NOp   1
 Largest concise Abelian subgroup C1      NOp   1
                         Standard orientation:                         
 ---------------------------------------------------------------------
 Center     Atomic      Atomic             Coordinates (Angstroms)
 Number     Number       Type             X           Y           Z
 ---------------------------------------------------------------------
      1         15           0        2.410832   -0.167666   -0.185053
      2          7           0       -0.035075    1.474430   -0.230175
      3          6           0        2.186519    1.302419   -1.285158
      4          1           0        3.115164    1.877004   -1.400796
      5          1           0        1.930008    0.859968   -2.263021
      6          8           0       -0.108153   -0.886103   -2.054017
      7         15           0       -2.426169   -0.103139    0.067487
      8          6           0        1.074713    2.155071   -0.751078
      9          6           0        1.176719    3.527985   -0.709354
     10          1           0        2.073327    3.988654   -1.131973
     11          6           0        0.161506    4.326693   -0.120631
     12          1           0        0.234861    5.413832   -0.080925
     13          6           0       -0.950815    3.629757    0.425327
     14          1           0       -1.779985    4.175567    0.883303
     15          6           0       -1.029397    2.256544    0.371054
     16          6           0       -2.225532    1.520852    0.916123
     17          1           0       -3.137078    2.131148    0.851405
     18          1           0       -2.080607    1.265922    1.980814
     19         44           0       -0.023655   -0.668147    0.020755
     20          1           0        0.621077   -1.461452   -2.306788
     21          6           0       -3.257364    0.263811   -1.607254
     22          6           0       -3.582467   -1.124088    1.189452
     23          6           0        3.542653   -1.363194   -1.154229
     24          6           0        3.282825    0.431485    1.399799
     25          6           0        2.493640    1.628001    1.969006
     26          1           0        2.596117    2.514633    1.332363
     27          1           0        1.424250    1.433804    2.100811
     28          1           0        2.914553    1.869411    2.958278
     29          6           0        3.321384   -0.710692    2.435594
     30          1           0        3.475845   -0.278026    3.437057
     31          1           0        2.395261   -1.297901    2.466818
     32          1           0        4.148208   -1.404184    2.246068
     33          6           0        4.712739    0.924536    1.128900
     34          1           0        5.105837    1.369248    2.058252
     35          1           0        5.391402    0.111208    0.843544
     36          1           0        4.739688    1.702080    0.351262
     37          6           0        4.665026   -0.594205   -1.871844
     38          1           0        5.309291   -0.030150   -1.189111
     39          1           0        5.298186   -1.326343   -2.400393
     40          1           0        4.263678    0.097362   -2.626318
     41          6           0        4.128854   -2.422746   -0.210652
     42          1           0        4.622753   -3.196782   -0.820215
     43          1           0        4.884089   -2.008312    0.467947
     44          1           0        3.347034   -2.915322    0.387105
     45          6           0        2.722532   -2.093355   -2.226884
     46          1           0        1.920608   -2.701697   -1.785763
     47          1           0        2.307941   -1.399303   -2.971535
     48          1           0        3.395436   -2.778621   -2.766831
     49          6           0       -3.233770   -0.992267   -2.495306
     50          1           0       -3.571764   -0.709877   -3.506607
     51          1           0       -2.216082   -1.395502   -2.569277
     52          1           0       -3.907954   -1.775964   -2.131293
     53          6           0       -4.702715    0.753887   -1.435369
     54          1           0       -5.072904    1.075384   -2.423259
     55          1           0       -5.375071   -0.035408   -1.075780
     56          1           0       -4.774227    1.618474   -0.758743
     57          6           0       -2.459668    1.383252   -2.301789
     58          1           0       -2.518209    2.331622   -1.750448
     59          1           0       -1.405289    1.119299   -2.429583
     60          1           0       -2.904500    1.546244   -3.297180
     61          6           0       -2.779414   -1.656446    2.384407
     62          1           0       -1.956306   -2.312882    2.072876
     63          1           0       -2.377896   -0.845616    3.004905
     64          1           0       -3.461226   -2.248056    3.016669
     65          6           0       -4.728423   -0.262081    1.747004
     66          1           0       -5.374621    0.155646    0.967990
     67          1           0       -5.354829   -0.899782    2.392949
     68          1           0       -4.351098    0.562671    2.368479
     69          6           0       -4.139870   -2.326733    0.414889
     70          1           0       -4.657203   -2.990944    1.126164
     71          1           0       -4.869221   -2.030653   -0.349606
     72          1           0       -3.338955   -2.908616   -0.065959
     73          8           0       -0.197160   -2.643423    0.010317
     74          6           0        0.033417   -0.564373    1.858230
     75          1           0       -0.258240   -2.806323   -0.949257
     76          8           0        0.088629   -0.506299    3.015661
 ---------------------------------------------------------------------
 Rotational constants (GHZ):           0.1987277           0.1044448           0.0968362
 Standard basis: def2SVP (5D, 7F)
 There are   719 symmetry adapted cartesian basis functions of A   symmetry.
 There are   684 symmetry adapted basis functions of A   symmetry.
   684 basis functions,  1154 primitive gaussians,   719 cartesian basis functions
   134 alpha electrons      132 beta electrons
       nuclear repulsion energy      4531.1025097904 Hartrees.
 NAtoms=   76 NActive=   76 NUniq=   76 SFac= 1.00D+00 NAtFMM=   60 NAOKFM=T Big=T
 Integral buffers will be    131072 words long.
 Regular integral format.
 Two-electron integral symmetry is turned on.
 Nuclear repulsion after empirical dispersion term =     4530.8806113990 Hartrees.
 ------------------------------------------------------------------------------
 Polarizable Continuum Model (PCM)
 =================================
 Model                : PCM.
 Atomic radii         : SMD-Coulomb.
 Polarization charges : Total charges.
 Charge compensation  : None.
 Solution method      : On-the-fly selection.
 Cavity type          : VdW (van der Waals Surface) (Alpha=1.000).
 Cavity algorithm     : GePol (No added spheres)
                        Default sphere list used, NSphG=   76.
                        Lebedev-Laikov grids with approx.  5.0 points / Ang**2.
                        Smoothing algorithm: York/Karplus (Gamma=1.0000).
                        Polarization charges: spherical gaussians, with
                                              point-specific exponents (IZeta= 3).
                        Self-potential: point-specific (ISelfS= 7).
                        Self-field    : sphere-specific E.n sum rule (ISelfD= 2).
 Solvent              : Water, Eps=  78.355300 Eps(inf)=   1.777849
 ------------------------------------------------------------------------------
 ------------------------------------------------------------------------------
 Atomic radii for non-electrostatic terms: SMD-CDS.
 ------------------------------------------------------------------------------
 Nuclear repulsion after PCM non-electrostatic terms =     4530.8992351966 Hartrees.
 One-electron integrals computed using PRISM.
   1 Symmetry operations used in ECPInt.
 ECPInt:  NShTT=   54615 NPrTT=  190596 LenC2=   48135 LenP2D=  113922.
 LDataN:  DoStor=T MaxTD1= 7 Len=  274
 NBasis=   684 RedAO= T EigKep=  4.88D-04  NBF=   684
 NBsUse=   684 1.00D-06 EigRej= -1.00D+00 NBFU=   684
 Defaulting to unpruned grid for atomic number  44.
 Initial guess from the checkpoint file:  "A_Ru_Cis_CO_straight_DFT_B3LYP_def2svp_smd_water_T_TDDFT_100.chk"
 B after Tr=    -0.000000    0.000000    0.000000
         Rot=    1.000000   -0.000000   -0.000000    0.000000 Ang=   0.00 deg.
 Initial guess <Sx>= 0.0000 <Sy>= 0.0000 <Sz>= 1.0000 <S**2>= 2.0209 S= 1.0069
 Requested convergence on RMS density matrix=1.00D-08 within  32 cycles.
 Requested convergence on MAX density matrix=1.00D-06.
 Requested convergence on             energy=1.00D-06.
 No special actions if energy rises.
 Defaulting to unpruned grid for atomic number  44.
 Defaulting to unpruned grid for atomic number  44.
 Defaulting to unpruned grid for atomic number  44.
 Defaulting to unpruned grid for atomic number  44.
 Defaulting to unpruned grid for atomic number  44.
 Defaulting to unpruned grid for atomic number  44.
 Defaulting to unpruned grid for atomic number  44.
 Defaulting to unpruned grid for atomic number  44.
 Defaulting to unpruned grid for atomic number  44.
 Defaulting to unpruned grid for atomic number  44.
 Defaulting to unpruned grid for atomic number  44.
 Defaulting to unpruned grid for atomic number  44.
 Defaulting to unpruned grid for atomic number  44.
 Defaulting to unpruned grid for atomic number  44.
 Defaulting to unpruned grid for atomic number  44.
 Defaulting to unpruned grid for atomic number  44.
 Defaulting to unpruned grid for atomic number  44.
 Defaulting to unpruned grid for atomic number  44.
 Defaulting to unpruned grid for atomic number  44.
 Defaulting to unpruned grid for atomic number  44.
 Defaulting to unpruned grid for atomic number  44.
 Defaulting to unpruned grid for atomic number  44.
 Defaulting to unpruned grid for atomic number  44.
 Defaulting to unpruned grid for atomic number  44.
 Inv3:  Mode=1 IEnd=    64338483.
 Iteration    1 A*A^-1 deviation from unit magnitude is 3.55D-15 for   1216.
 Iteration    1 A*A^-1 deviation from orthogonality  is 2.66D-15 for   3924    837.
 Iteration    1 A^-1*A deviation from unit magnitude is 3.22D-15 for   2014.
 Iteration    1 A^-1*A deviation from orthogonality  is 4.39D-15 for   4194   4146.
 Error on total polarization charges =  0.07766
 SCF Done:  E(UB3LYP) =  -1998.92371993     A.U. after    1 cycles
            NFock=  1  Conv=0.33D-08     -V/T= 2.0404
 <Sx>= 0.0000 <Sy>= 0.0000 <Sz>= 1.0000 <S**2>= 2.0209 S= 1.0069
 <L.S>=  0.00000000000    
 SMD-CDS (non-electrostatic) energy       (kcal/mol) =      11.69
 (included in total energy above)
 Annihilation of the first spin contaminant:
 S**2 before annihilation     2.0209,   after     2.0003
 QCSCF skips out because SCF is already converged.
 DoSCS=F DFT=T ScalE2(SS,OS)=  1.000000  1.000000
 ExpMin= 3.92D-02 ExpMax= 8.00D+03 ExpMxC= 1.20D+03 IAcc=3 IRadAn=         5 AccDes= 0.00D+00
 HarFok:  IExCor=  205 AccDes= 0.00D+00 IRadAn=         5 IDoV=-2 UseB2=F ITyADJ=14
 ICtDFT= 12500011 ScaDFX=  1.000000  1.000000  1.000000  1.000000
 Defaulting to unpruned grid for atomic number  44.
 GSVD:  LWork=       -2100 too small for GESVD, short by        9450 words or        9450 for optimal perf.
 Range of M.O.s used for correlation:    43   684
 NBasis=   684 NAE=   134 NBE=   132 NFC=    42 NFV=     0
 NROrb=    642 NOA=    92 NOB=    90 NVA=   550 NVB=   552

 **** Warning!!: The smallest alpha delta epsilon is  0.52510756D-01

 Ignoring spin specification with unrestricted ground state.
 NEqPCM:  Using non-equilibrium solvation (IEInf=1, Eps=  78.3553, EpsInf=   1.7778)
 Inv3:  Mode=1 IEnd=    64338483.
 Iteration    1 A*A^-1 deviation from unit magnitude is 3.55D-15 for   2527.
 Iteration    1 A*A^-1 deviation from orthogonality  is 3.11D-15 for   2519    955.
 Iteration    1 A^-1*A deviation from unit magnitude is 4.00D-15 for   4345.
 Iteration    1 A^-1*A deviation from orthogonality  is 6.88D-15 for   4194   4146.
 Orbital symmetries:
 Alpha Orbitals:
       Occupied  (A) (A) (A) (A) (A) (A) (A) (A) (A) (A) (A) (A)
                 (A) (A) (A) (A) (A) (A) (A) (A) (A) (A) (A) (A)
                 (A) (A) (A) (A) (A) (A) (A) (A) (A) (A) (A) (A)
                 (A) (A) (A) (A) (A) (A) (A) (A) (A) (A) (A) (A)
                 (A) (A) (A) (A) (A) (A) (A) (A) (A) (A) (A) (A)
                 (A) (A) (A) (A) (A) (A) (A) (A) (A) (A) (A) (A)
                 (A) (A) (A) (A) (A) (A) (A) (A) (A) (A) (A) (A)
                 (A) (A) (A) (A) (A) (A) (A) (A) (A) (A) (A) (A)
                 (A) (A) (A) (A) (A) (A) (A) (A) (A) (A) (A) (A)
                 (A) (A) (A) (A) (A) (A) (A) (A) (A) (A) (A) (A)
                 (A) (A) (A) (A) (A) (A) (A) (A) (A) (A) (A) (A)
                 (A) (A)
       Virtual   (A) (A) (A) (A) (A) (A) (A) (A) (A) (A) (A) (A)
                 (A) (A) (A) (A) (A) (A) (A) (A) (A) (A) (A) (A)
                 (A) (A) (A) (A) (A) (A) (A) (A) (A) (A) (A) (A)
                 (A) (A) (A) (A) (A) (A) (A) (A) (A) (A) (A) (A)
                 (A) (A) (A) (A) (A) (A) (A) (A) (A) (A) (A) (A)
                 (A) (A) (A) (A) (A) (A) (A) (A) (A) (A) (A) (A)
                 (A) (A) (A) (A) (A) (A) (A) (A) (A) (A) (A) (A)
                 (A) (A) (A) (A) (A) (A) (A) (A) (A) (A) (A) (A)
                 (A) (A) (A) (A) (A) (A) (A) (A) (A) (A) (A) (A)
                 (A) (A) (A) (A) (A) (A) (A) (A) (A) (A) (A) (A)
                 (A) (A) (A) (A) (A) (A) (A) (A) (A) (A) (A) (A)
                 (A) (A) (A) (A) (A) (A) (A) (A) (A) (A) (A) (A)
                 (A) (A) (A) (A) (A) (A) (A) (A) (A) (A) (A) (A)
                 (A) (A) (A) (A) (A) (A) (A) (A) (A) (A) (A) (A)
                 (A) (A) (A) (A) (A) (A) (A) (A) (A) (A) (A) (A)
                 (A) (A) (A) (A) (A) (A) (A) (A) (A) (A) (A) (A)
                 (A) (A) (A) (A) (A) (A) (A) (A) (A) (A) (A) (A)
                 (A) (A) (A) (A) (A) (A) (A) (A) (A) (A) (A) (A)
                 (A) (A) (A) (A) (A) (A) (A) (A) (A) (A) (A) (A)
                 (A) (A) (A) (A) (A) (A) (A) (A) (A) (A) (A) (A)
                 (A) (A) (A) (A) (A) (A) (A) (A) (A) (A) (A) (A)
                 (A) (A) (A) (A) (A) (A) (A) (A) (A) (A) (A) (A)
                 (A) (A) (A) (A) (A) (A) (A) (A) (A) (A) (A) (A)
                 (A) (A) (A) (A) (A) (A) (A) (A) (A) (A) (A) (A)
                 (A) (A) (A) (A) (A) (A) (A) (A) (A) (A) (A) (A)
                 (A) (A) (A) (A) (A) (A) (A) (A) (A) (A) (A) (A)
                 (A) (A) (A) (A) (A) (A) (A) (A) (A) (A) (A) (A)
                 (A) (A) (A) (A) (A) (A) (A) (A) (A) (A) (A) (A)
                 (A) (A) (A) (A) (A) (A) (A) (A) (A) (A) (A) (A)
                 (A) (A) (A) (A) (A) (A) (A) (A) (A) (A) (A) (A)
                 (A) (A) (A) (A) (A) (A) (A) (A) (A) (A) (A) (A)
                 (A) (A) (A) (A) (A) (A) (A) (A) (A) (A) (A) (A)
                 (A) (A) (A) (A) (A) (A) (A) (A) (A) (A) (A) (A)
                 (A) (A) (A) (A) (A) (A) (A) (A) (A) (A) (A) (A)
                 (A) (A) (A) (A) (A) (A) (A) (A) (A) (A) (A) (A)
                 (A) (A) (A) (A) (A) (A) (A) (A) (A) (A) (A) (A)
                 (A) (A) (A) (A) (A) (A) (A) (A) (A) (A) (A) (A)
                 (A) (A) (A) (A) (A) (A) (A) (A) (A) (A) (A) (A)
                 (A) (A) (A) (A) (A) (A) (A) (A) (A) (A) (A) (A)
                 (A) (A) (A) (A) (A) (A) (A) (A) (A) (A) (A) (A)
                 (A) (A) (A) (A) (A) (A) (A) (A) (A) (A) (A) (A)
                 (A) (A) (A) (A) (A) (A) (A) (A) (A) (A) (A) (A)
                 (A) (A) (A) (A) (A) (A) (A) (A) (A) (A) (A) (A)
                 (A) (A) (A) (A) (A) (A) (A) (A) (A) (A) (A) (A)
                 (A) (A) (A) (A) (A) (A) (A) (A) (A) (A) (A) (A)
                 (A) (A) (A) (A) (A) (A) (A) (A) (A) (A)
 Beta  Orbitals:
       Occupied  (A) (A) (A) (A) (A) (A) (A) (A) (A) (A) (A) (A)
                 (A) (A) (A) (A) (A) (A) (A) (A) (A) (A) (A) (A)
                 (A) (A) (A) (A) (A) (A) (A) (A) (A) (A) (A) (A)
                 (A) (A) (A) (A) (A) (A) (A) (A) (A) (A) (A) (A)
                 (A) (A) (A) (A) (A) (A) (A) (A) (A) (A) (A) (A)
                 (A) (A) (A) (A) (A) (A) (A) (A) (A) (A) (A) (A)
                 (A) (A) (A) (A) (A) (A) (A) (A) (A) (A) (A) (A)
                 (A) (A) (A) (A) (A) (A) (A) (A) (A) (A) (A) (A)
                 (A) (A) (A) (A) (A) (A) (A) (A) (A) (A) (A) (A)
                 (A) (A) (A) (A) (A) (A) (A) (A) (A) (A) (A) (A)
                 (A) (A) (A) (A) (A) (A) (A) (A) (A) (A) (A) (A)
       Virtual   (A) (A) (A) (A) (A) (A) (A) (A) (A) (A) (A) (A)
                 (A) (A) (A) (A) (A) (A) (A) (A) (A) (A) (A) (A)
                 (A) (A) (A) (A) (A) (A) (A) (A) (A) (A) (A) (A)
                 (A) (A) (A) (A) (A) (A) (A) (A) (A) (A) (A) (A)
                 (A) (A) (A) (A) (A) (A) (A) (A) (A) (A) (A) (A)
                 (A) (A) (A) (A) (A) (A) (A) (A) (A) (A) (A) (A)
                 (A) (A) (A) (A) (A) (A) (A) (A) (A) (A) (A) (A)
                 (A) (A) (A) (A) (A) (A) (A) (A) (A) (A) (A) (A)
                 (A) (A) (A) (A) (A) (A) (A) (A) (A) (A) (A) (A)
                 (A) (A) (A) (A) (A) (A) (A) (A) (A) (A) (A) (A)
                 (A) (A) (A) (A) (A) (A) (A) (A) (A) (A) (A) (A)
                 (A) (A) (A) (A) (A) (A) (A) (A) (A) (A) (A) (A)
                 (A) (A) (A) (A) (A) (A) (A) (A) (A) (A) (A) (A)
                 (A) (A) (A) (A) (A) (A) (A) (A) (A) (A) (A) (A)
                 (A) (A) (A) (A) (A) (A) (A) (A) (A) (A) (A) (A)
                 (A) (A) (A) (A) (A) (A) (A) (A) (A) (A) (A) (A)
                 (A) (A) (A) (A) (A) (A) (A) (A) (A) (A) (A) (A)
                 (A) (A) (A) (A) (A) (A) (A) (A) (A) (A) (A) (A)
                 (A) (A) (A) (A) (A) (A) (A) (A) (A) (A) (A) (A)
                 (A) (A) (A) (A) (A) (A) (A) (A) (A) (A) (A) (A)
                 (A) (A) (A) (A) (A) (A) (A) (A) (A) (A) (A) (A)
                 (A) (A) (A) (A) (A) (A) (A) (A) (A) (A) (A) (A)
                 (A) (A) (A) (A) (A) (A) (A) (A) (A) (A) (A) (A)
                 (A) (A) (A) (A) (A) (A) (A) (A) (A) (A) (A) (A)
                 (A) (A) (A) (A) (A) (A) (A) (A) (A) (A) (A) (A)
                 (A) (A) (A) (A) (A) (A) (A) (A) (A) (A) (A) (A)
                 (A) (A) (A) (A) (A) (A) (A) (A) (A) (A) (A) (A)
                 (A) (A) (A) (A) (A) (A) (A) (A) (A) (A) (A) (A)
                 (A) (A) (A) (A) (A) (A) (A) (A) (A) (A) (A) (A)
                 (A) (A) (A) (A) (A) (A) (A) (A) (A) (A) (A) (A)
                 (A) (A) (A) (A) (A) (A) (A) (A) (A) (A) (A) (A)
                 (A) (A) (A) (A) (A) (A) (A) (A) (A) (A) (A) (A)
                 (A) (A) (A) (A) (A) (A) (A) (A) (A) (A) (A) (A)
                 (A) (A) (A) (A) (A) (A) (A) (A) (A) (A) (A) (A)
                 (A) (A) (A) (A) (A) (A) (A) (A) (A) (A) (A) (A)
                 (A) (A) (A) (A) (A) (A) (A) (A) (A) (A) (A) (A)
                 (A) (A) (A) (A) (A) (A) (A) (A) (A) (A) (A) (A)
                 (A) (A) (A) (A) (A) (A) (A) (A) (A) (A) (A) (A)
                 (A) (A) (A) (A) (A) (A) (A) (A) (A) (A) (A) (A)
                 (A) (A) (A) (A) (A) (A) (A) (A) (A) (A) (A) (A)
                 (A) (A) (A) (A) (A) (A) (A) (A) (A) (A) (A) (A)
                 (A) (A) (A) (A) (A) (A) (A) (A) (A) (A) (A) (A)
                 (A) (A) (A) (A) (A) (A) (A) (A) (A) (A) (A) (A)
                 (A) (A) (A) (A) (A) (A) (A) (A) (A) (A) (A) (A)
                 (A) (A) (A) (A) (A) (A) (A) (A) (A) (A) (A) (A)
                 (A) (A) (A) (A) (A) (A) (A) (A) (A) (A) (A) (A)
   400 initial guesses have been made.
 Convergence on wavefunction:    0.001000000000000
 Iteration     1 Dimension   400 NMult     0 NNew    400
 CISAX will form   120 AO SS matrices at one time.
 Defaulting to unpruned grid for atomic number  44.
 Defaulting to unpruned grid for atomic number  44.
 Defaulting to unpruned grid for atomic number  44.
 Defaulting to unpruned grid for atomic number  44.
 Defaulting to unpruned grid for atomic number  44.
 Defaulting to unpruned grid for atomic number  44.
 Defaulting to unpruned grid for atomic number  44.
 Defaulting to unpruned grid for atomic number  44.
 Defaulting to unpruned grid for atomic number  44.
 Defaulting to unpruned grid for atomic number  44.
 Defaulting to unpruned grid for atomic number  44.
 Defaulting to unpruned grid for atomic number  44.
 Defaulting to unpruned grid for atomic number  44.
 Defaulting to unpruned grid for atomic number  44.
 Defaulting to unpruned grid for atomic number  44.
 Defaulting to unpruned grid for atomic number  44.
 Defaulting to unpruned grid for atomic number  44.
 Defaulting to unpruned grid for atomic number  44.
 Defaulting to unpruned grid for atomic number  44.
 Defaulting to unpruned grid for atomic number  44.
 Defaulting to unpruned grid for atomic number  44.
 Defaulting to unpruned grid for atomic number  44.
 Defaulting to unpruned grid for atomic number  44.
 Defaulting to unpruned grid for atomic number  44.
 New state      2 was old state      6
 New state      3 was old state      2
 New state      4 was old state      7
 New state      5 was old state      4
 New state      6 was old state      3
 New state      7 was old state      5
 New state      9 was old state     10
 New state     10 was old state     12
 New state     11 was old state      9
 New state     12 was old state     14
 New state     13 was old state     11
 New state     14 was old state     18
 New state     15 was old state     13
 New state     16 was old state     23
 New state     17 was old state     29
 New state     18 was old state     16
 New state     19 was old state     15
 New state     20 was old state     31
 New state     21 was old state     17
 New state     22 was old state     34
 New state     23 was old state     19
 New state     24 was old state     30
 New state     25 was old state     20
 New state     26 was old state     22
 New state     27 was old state     25
 New state     28 was old state     37
 New state     29 was old state     27
 New state     30 was old state     24
 New state     31 was old state     39
 New state     32 was old state     54
 New state     33 was old state     26
 New state     34 was old state     36
 New state     35 was old state     88
 New state     36 was old state     32
 New state     37 was old state     28
 New state     38 was old state     60
 New state     39 was old state     62
 New state     40 was old state     33
 New state     41 was old state     87
 New state     42 was old state     43
 New state     43 was old state     44
 New state     44 was old state     48
 New state     45 was old state     41
 New state     46 was old state     49
 New state     47 was old state     38
 New state     48 was old state     35
 New state     49 was old state     51
 New state     50 was old state     69
 New state     51 was old state    100
 New state     52 was old state     70
 New state     53 was old state     56
 New state     54 was old state     40
 New state     55 was old state     42
 New state     56 was old state     77
 New state     57 was old state     45
 New state     59 was old state     46
 New state     60 was old state     50
 New state     61 was old state     66
 New state     62 was old state     71
 New state     63 was old state     83
 New state     64 was old state     47
 New state     65 was old state    113
 New state     66 was old state     52
 New state     67 was old state     57
 New state     68 was old state     67
 New state     69 was old state     94
 New state     70 was old state    108
 New state     71 was old state     55
 New state     72 was old state    105
 New state     73 was old state     53
 New state     74 was old state     59
 New state     75 was old state     65
 New state     76 was old state     61
 New state     77 was old state    104
 New state     78 was old state     92
 New state     79 was old state    103
 New state     80 was old state     79
 New state     81 was old state     72
 New state     82 was old state     64
 New state     83 was old state     68
 New state     84 was old state     78
 New state     85 was old state     73
 New state     86 was old state     75
 New state     87 was old state     74
 New state     88 was old state     80
 New state     89 was old state     76
 New state     90 was old state     93
 New state     91 was old state    116
 New state     92 was old state     89
 New state     93 was old state     84
 New state     94 was old state     82
 New state     95 was old state    115
 New state     96 was old state    102
 New state     97 was old state     81
 New state     98 was old state    127
 New state     99 was old state     91
 New state    100 was old state     86
 Iteration     2 Dimension   600 NMult   400 NNew    200
 New state     18 was old state     20
 New state     19 was old state     18
 New state     20 was old state     19
 New state     21 was old state     22
 New state     22 was old state     21
 New state     23 was old state     34
 New state     25 was old state     23
 New state     26 was old state     25
 New state     27 was old state     26
 New state     29 was old state     27
 New state     30 was old state     31
 New state     31 was old state     29
 New state     32 was old state     30
 New state     33 was old state     32
 New state     34 was old state     36
 New state     36 was old state     33
 New state     37 was old state     38
 New state     38 was old state     41
 New state     39 was old state     37
 New state     40 was old state     39
 New state     41 was old state     40
 New state     44 was old state     45
 New state     45 was old state     44
 New state     47 was old state     49
 New state     48 was old state     47
 New state     49 was old state     48
 New state     55 was old state     58
 New state     57 was old state     55
 New state     58 was old state     57
 New state     59 was old state     60
 New state     60 was old state     59
 New state     64 was old state     65
 New state     65 was old state     64
 New state     66 was old state     68
 New state     67 was old state     66
 New state     68 was old state     67
 New state     70 was old state     71
 New state     71 was old state     70
 New state     75 was old state     78
 New state     76 was old state     77
 New state     77 was old state     75
 New state     78 was old state     76
 New state     80 was old state     82
 New state     81 was old state     80
 New state     82 was old state     81
 New state     84 was old state     85
 New state     85 was old state     84
 New state     86 was old state     98
 New state     87 was old state     86
 New state     88 was old state     87
 New state     89 was old state     88
 New state     90 was old state     89
 New state     91 was old state     90
 New state     92 was old state     91
 New state     93 was old state     96
 New state     94 was old state     92
 New state     95 was old state     94
 New state     96 was old state     95
 New state     97 was old state     93
 New state     98 was old state     97
 New state    100 was old state    101
 Iteration     3 Dimension   800 NMult   600 NNew    200
 Iteration     4 Dimension  1000 NMult   800 NNew    200
 Iteration     5 Dimension  1078 NMult  1000 NNew     78
 Iteration     6 Dimension  1080 NMult  1078 NNew      2
 ***********************************************************************
 Excited states from <AA,BB:AA,BB> singles matrix:
 ***********************************************************************
 
 ExtSpn:  IState=     1 X2= 1.004 Y2= 0.004 X2-Y2-1=-6.66D-16
          S2Grnd=  2.021 Ra=  0.006 Rb=  0.001 T=  0.000 S2Ext=  0.007 S2=  2.028
 ExtSpn:  IState=     2 X2= 1.003 Y2= 0.003 X2-Y2-1= 8.88D-16
          S2Grnd=  2.021 Ra=  0.001 Rb=  0.000 T= -0.004 S2Ext= -0.003 S2=  2.018
 ExtSpn:  IState=     3 X2= 1.008 Y2= 0.008 X2-Y2-1= 2.22D-16
          S2Grnd=  2.021 Ra=  0.001 Rb=  0.003 T=  0.002 S2Ext=  0.006 S2=  2.027
 ExtSpn:  IState=     4 X2= 1.003 Y2= 0.003 X2-Y2-1=-3.33D-16
          S2Grnd=  2.021 Ra=  0.001 Rb=  0.003 T= -0.004 S2Ext=  0.000 S2=  2.021
 ExtSpn:  IState=     5 X2= 1.002 Y2= 0.002 X2-Y2-1=-6.66D-16
          S2Grnd=  2.021 Ra=  0.006 Rb=  0.002 T=  0.003 S2Ext=  0.010 S2=  2.031
 ExtSpn:  IState=     6 X2= 1.001 Y2= 0.001 X2-Y2-1= 8.88D-16
          S2Grnd=  2.021 Ra=  0.009 Rb=  0.001 T=  0.001 S2Ext=  0.011 S2=  2.031
 ExtSpn:  IState=     7 X2= 1.001 Y2= 0.001 X2-Y2-1= 6.66D-16
          S2Grnd=  2.021 Ra=  0.006 Rb=  0.001 T=  0.001 S2Ext=  0.007 S2=  2.028
 ExtSpn:  IState=     8 X2= 1.001 Y2= 0.001 X2-Y2-1= 1.33D-15
          S2Grnd=  2.021 Ra=  0.001 Rb=  0.004 T= -0.000 S2Ext=  0.005 S2=  2.026
 ExtSpn:  IState=     9 X2= 1.002 Y2= 0.002 X2-Y2-1=-1.11D-16
          S2Grnd=  2.021 Ra=  0.004 Rb=  0.007 T= -0.005 S2Ext=  0.007 S2=  2.027
 ExtSpn:  IState=    10 X2= 1.002 Y2= 0.002 X2-Y2-1= 4.44D-16
          S2Grnd=  2.021 Ra=  0.004 Rb=  0.005 T= -0.001 S2Ext=  0.008 S2=  2.029
 ExtSpn:  IState=    11 X2= 1.000 Y2= 0.000 X2-Y2-1= 1.11D-15
          S2Grnd=  2.021 Ra=  0.006 Rb=  0.001 T=  0.001 S2Ext=  0.007 S2=  2.028
 ExtSpn:  IState=    12 X2= 1.002 Y2= 0.002 X2-Y2-1= 4.44D-16
          S2Grnd=  2.021 Ra=  0.006 Rb=  0.005 T= -0.003 S2Ext=  0.008 S2=  2.029
 ExtSpn:  IState=    13 X2= 1.000 Y2= 0.000 X2-Y2-1= 2.22D-16
          S2Grnd=  2.021 Ra=  0.006 Rb=  0.001 T=  0.000 S2Ext=  0.007 S2=  2.027
 ExtSpn:  IState=    14 X2= 1.002 Y2= 0.002 X2-Y2-1=-7.77D-16
          S2Grnd=  2.021 Ra=  0.087 Rb=  0.036 T=  0.104 S2Ext=  0.227 S2=  2.248
 ExtSpn:  IState=    15 X2= 1.003 Y2= 0.003 X2-Y2-1=-1.89D-15
          S2Grnd=  2.021 Ra=  0.008 Rb=  0.019 T= -0.009 S2Ext=  0.017 S2=  2.038
 ExtSpn:  IState=    16 X2= 1.000 Y2= 0.000 X2-Y2-1=-5.55D-16
          S2Grnd=  2.021 Ra=  0.008 Rb=  0.004 T=  0.004 S2Ext=  0.015 S2=  2.036
 ExtSpn:  IState=    17 X2= 1.003 Y2= 0.003 X2-Y2-1= 2.22D-16
          S2Grnd=  2.021 Ra=  0.408 Rb=  0.502 T=  0.898 S2Ext=  1.809 S2=  3.830
 ExtSpn:  IState=    18 X2= 1.005 Y2= 0.005 X2-Y2-1=-6.66D-16
          S2Grnd=  2.021 Ra=  0.020 Rb=  0.018 T= -0.004 S2Ext=  0.034 S2=  2.055
 ExtSpn:  IState=    19 X2= 1.001 Y2= 0.001 X2-Y2-1=-2.22D-16
          S2Grnd=  2.021 Ra=  0.007 Rb=  0.009 T=  0.008 S2Ext=  0.024 S2=  2.045
 ExtSpn:  IState=    20 X2= 1.000 Y2= 0.000 X2-Y2-1= 4.44D-16
          S2Grnd=  2.021 Ra=  0.006 Rb=  0.003 T=  0.004 S2Ext=  0.013 S2=  2.034
 ExtSpn:  IState=    21 X2= 1.004 Y2= 0.004 X2-Y2-1=-2.22D-16
          S2Grnd=  2.021 Ra=  0.292 Rb=  0.298 T=  0.460 S2Ext=  1.050 S2=  3.071
 ExtSpn:  IState=    22 X2= 1.003 Y2= 0.003 X2-Y2-1= 2.22D-16
          S2Grnd=  2.021 Ra=  0.048 Rb=  0.087 T=  0.118 S2Ext=  0.252 S2=  2.273
 ExtSpn:  IState=    23 X2= 1.003 Y2= 0.003 X2-Y2-1= 2.44D-15
          S2Grnd=  2.021 Ra=  0.109 Rb=  0.160 T=  0.238 S2Ext=  0.507 S2=  2.528
 ExtSpn:  IState=    24 X2= 1.002 Y2= 0.002 X2-Y2-1=-9.99D-16
          S2Grnd=  2.021 Ra=  0.487 Rb=  0.421 T= -0.799 S2Ext=  0.109 S2=  2.130
 ExtSpn:  IState=    25 X2= 1.000 Y2= 0.000 X2-Y2-1= 2.22D-16
          S2Grnd=  2.021 Ra=  0.008 Rb=  0.005 T= -0.001 S2Ext=  0.012 S2=  2.033
 ExtSpn:  IState=    26 X2= 1.002 Y2= 0.002 X2-Y2-1= 1.11D-15
          S2Grnd=  2.021 Ra=  0.019 Rb=  0.042 T=  0.041 S2Ext=  0.101 S2=  2.122
 ExtSpn:  IState=    27 X2= 1.001 Y2= 0.001 X2-Y2-1= 8.88D-16
          S2Grnd=  2.021 Ra=  0.022 Rb=  0.043 T=  0.033 S2Ext=  0.098 S2=  2.119
 ExtSpn:  IState=    28 X2= 1.002 Y2= 0.002 X2-Y2-1= 8.88D-16
          S2Grnd=  2.021 Ra=  0.082 Rb=  0.091 T= -0.101 S2Ext=  0.072 S2=  2.093
 ExtSpn:  IState=    29 X2= 1.001 Y2= 0.001 X2-Y2-1= 2.22D-16
          S2Grnd=  2.021 Ra=  0.005 Rb=  0.018 T=  0.002 S2Ext=  0.025 S2=  2.046
 ExtSpn:  IState=    30 X2= 1.010 Y2= 0.010 X2-Y2-1= 1.11D-15
          S2Grnd=  2.021 Ra=  0.334 Rb=  0.342 T=  0.143 S2Ext=  0.819 S2=  2.840
 ExtSpn:  IState=    31 X2= 1.003 Y2= 0.003 X2-Y2-1= 1.33D-15
          S2Grnd=  2.021 Ra=  0.163 Rb=  0.196 T=  0.167 S2Ext=  0.526 S2=  2.547
 ExtSpn:  IState=    32 X2= 1.003 Y2= 0.003 X2-Y2-1=-4.44D-16
          S2Grnd=  2.021 Ra=  0.103 Rb=  0.170 T=  0.253 S2Ext=  0.526 S2=  2.547
 ExtSpn:  IState=    33 X2= 1.003 Y2= 0.003 X2-Y2-1=-8.88D-16
          S2Grnd=  2.021 Ra=  0.182 Rb=  0.248 T=  0.198 S2Ext=  0.627 S2=  2.648
 ExtSpn:  IState=    34 X2= 1.008 Y2= 0.008 X2-Y2-1=-5.55D-16
          S2Grnd=  2.021 Ra=  0.371 Rb=  0.358 T=  0.116 S2Ext=  0.844 S2=  2.865
 ExtSpn:  IState=    35 X2= 1.004 Y2= 0.004 X2-Y2-1=-4.44D-16
          S2Grnd=  2.021 Ra=  0.307 Rb=  0.459 T=  0.702 S2Ext=  1.469 S2=  3.490
 ExtSpn:  IState=    36 X2= 1.000 Y2= 0.000 X2-Y2-1= 2.22D-16
          S2Grnd=  2.021 Ra=  0.021 Rb=  0.040 T=  0.025 S2Ext=  0.086 S2=  2.107
 ExtSpn:  IState=    37 X2= 1.002 Y2= 0.002 X2-Y2-1= 8.88D-16
          S2Grnd=  2.021 Ra=  0.132 Rb=  0.115 T=  0.041 S2Ext=  0.289 S2=  2.310
 ExtSpn:  IState=    38 X2= 1.002 Y2= 0.002 X2-Y2-1= 4.44D-16
          S2Grnd=  2.021 Ra=  0.085 Rb=  0.303 T=  0.169 S2Ext=  0.557 S2=  2.578
 ExtSpn:  IState=    39 X2= 1.001 Y2= 0.001 X2-Y2-1= 4.44D-16
          S2Grnd=  2.021 Ra=  0.047 Rb=  0.138 T=  0.140 S2Ext=  0.324 S2=  2.345
 ExtSpn:  IState=    40 X2= 1.002 Y2= 0.002 X2-Y2-1=-5.55D-16
          S2Grnd=  2.021 Ra=  0.161 Rb=  0.387 T=  0.412 S2Ext=  0.959 S2=  2.980
 ExtSpn:  IState=    41 X2= 1.001 Y2= 0.001 X2-Y2-1= 4.44D-16
          S2Grnd=  2.021 Ra=  0.045 Rb=  0.030 T=  0.034 S2Ext=  0.108 S2=  2.129
 ExtSpn:  IState=    42 X2= 1.001 Y2= 0.001 X2-Y2-1=-7.77D-16
          S2Grnd=  2.021 Ra=  0.005 Rb=  0.025 T=  0.011 S2Ext=  0.041 S2=  2.062
 ExtSpn:  IState=    43 X2= 1.001 Y2= 0.001 X2-Y2-1=-3.33D-16
          S2Grnd=  2.021 Ra=  0.343 Rb=  0.136 T= -0.022 S2Ext=  0.457 S2=  2.478
 ExtSpn:  IState=    44 X2= 1.001 Y2= 0.001 X2-Y2-1=-6.66D-16
          S2Grnd=  2.021 Ra=  0.355 Rb=  0.141 T= -0.324 S2Ext=  0.172 S2=  2.193
 ExtSpn:  IState=    45 X2= 1.001 Y2= 0.001 X2-Y2-1= 6.66D-16
          S2Grnd=  2.021 Ra=  0.068 Rb=  0.035 T= -0.008 S2Ext=  0.094 S2=  2.115
 ExtSpn:  IState=    46 X2= 1.001 Y2= 0.001 X2-Y2-1=-5.55D-16
          S2Grnd=  2.021 Ra=  0.314 Rb=  0.132 T=  0.086 S2Ext=  0.532 S2=  2.553
 ExtSpn:  IState=    47 X2= 1.002 Y2= 0.002 X2-Y2-1= 4.44D-16
          S2Grnd=  2.021 Ra=  0.232 Rb=  0.496 T=  0.535 S2Ext=  1.263 S2=  3.283
 ExtSpn:  IState=    48 X2= 1.001 Y2= 0.001 X2-Y2-1=-2.22D-16
          S2Grnd=  2.021 Ra=  0.143 Rb=  0.063 T=  0.149 S2Ext=  0.355 S2=  2.376
 ExtSpn:  IState=    49 X2= 1.001 Y2= 0.001 X2-Y2-1=-1.11D-16
          S2Grnd=  2.021 Ra=  0.221 Rb=  0.123 T=  0.171 S2Ext=  0.514 S2=  2.535
 ExtSpn:  IState=    50 X2= 1.001 Y2= 0.001 X2-Y2-1= 2.22D-16
          S2Grnd=  2.021 Ra=  0.229 Rb=  0.427 T=  0.460 S2Ext=  1.116 S2=  3.137
 ExtSpn:  IState=    51 X2= 1.001 Y2= 0.001 X2-Y2-1=-4.44D-16
          S2Grnd=  2.021 Ra=  0.172 Rb=  0.444 T=  0.461 S2Ext=  1.077 S2=  3.098
 ExtSpn:  IState=    52 X2= 1.004 Y2= 0.004 X2-Y2-1= 0.00D+00
          S2Grnd=  2.021 Ra=  0.206 Rb=  0.597 T=  0.461 S2Ext=  1.264 S2=  3.285
 ExtSpn:  IState=    53 X2= 1.001 Y2= 0.001 X2-Y2-1=-1.11D-15
          S2Grnd=  2.021 Ra=  0.291 Rb=  0.224 T= -0.174 S2Ext=  0.341 S2=  2.362
 ExtSpn:  IState=    54 X2= 1.001 Y2= 0.001 X2-Y2-1= 8.88D-16
          S2Grnd=  2.021 Ra=  0.104 Rb=  0.087 T= -0.031 S2Ext=  0.160 S2=  2.181
 ExtSpn:  IState=    55 X2= 1.002 Y2= 0.002 X2-Y2-1=-1.11D-15
          S2Grnd=  2.021 Ra=  0.228 Rb=  0.408 T= -0.492 S2Ext=  0.144 S2=  2.165
 ExtSpn:  IState=    56 X2= 1.002 Y2= 0.002 X2-Y2-1=-1.11D-16
          S2Grnd=  2.021 Ra=  0.246 Rb=  0.243 T= -0.132 S2Ext=  0.358 S2=  2.379
 ExtSpn:  IState=    57 X2= 1.000 Y2= 0.000 X2-Y2-1= 8.88D-16
          S2Grnd=  2.021 Ra=  0.069 Rb=  0.058 T= -0.026 S2Ext=  0.100 S2=  2.121
 ExtSpn:  IState=    58 X2= 1.000 Y2= 0.000 X2-Y2-1= 2.22D-15
          S2Grnd=  2.021 Ra=  0.007 Rb=  0.027 T=  0.003 S2Ext=  0.038 S2=  2.058
 ExtSpn:  IState=    59 X2= 1.000 Y2= 0.000 X2-Y2-1= 2.22D-16
          S2Grnd=  2.021 Ra=  0.054 Rb=  0.034 T= -0.020 S2Ext=  0.068 S2=  2.089
 ExtSpn:  IState=    60 X2= 1.000 Y2= 0.000 X2-Y2-1=-3.33D-16
          S2Grnd=  2.021 Ra=  0.047 Rb=  0.079 T= -0.002 S2Ext=  0.123 S2=  2.144
 ExtSpn:  IState=    61 X2= 1.001 Y2= 0.001 X2-Y2-1= 2.44D-15
          S2Grnd=  2.021 Ra=  0.694 Rb=  0.258 T=  0.418 S2Ext=  1.370 S2=  3.391
 ExtSpn:  IState=    62 X2= 1.001 Y2= 0.001 X2-Y2-1=-5.55D-16
          S2Grnd=  2.021 Ra=  0.406 Rb=  0.345 T=  0.075 S2Ext=  0.826 S2=  2.846
 ExtSpn:  IState=    63 X2= 1.001 Y2= 0.001 X2-Y2-1=-4.44D-16
          S2Grnd=  2.021 Ra=  0.214 Rb=  0.296 T=  0.181 S2Ext=  0.691 S2=  2.711
 ExtSpn:  IState=    64 X2= 1.001 Y2= 0.001 X2-Y2-1= 0.00D+00
          S2Grnd=  2.021 Ra=  0.200 Rb=  0.213 T= -0.010 S2Ext=  0.403 S2=  2.424
 ExtSpn:  IState=    65 X2= 1.000 Y2= 0.000 X2-Y2-1= 4.44D-16
          S2Grnd=  2.021 Ra=  0.038 Rb=  0.069 T=  0.038 S2Ext=  0.145 S2=  2.166
 ExtSpn:  IState=    66 X2= 1.002 Y2= 0.002 X2-Y2-1=-1.11D-16
          S2Grnd=  2.021 Ra=  0.241 Rb=  0.483 T=  0.406 S2Ext=  1.130 S2=  3.151
 ExtSpn:  IState=    67 X2= 1.000 Y2= 0.000 X2-Y2-1=-1.78D-15
          S2Grnd=  2.021 Ra=  0.078 Rb=  0.175 T= -0.073 S2Ext=  0.180 S2=  2.201
 ExtSpn:  IState=    68 X2= 1.001 Y2= 0.001 X2-Y2-1= 1.55D-15
          S2Grnd=  2.021 Ra=  0.146 Rb=  0.211 T= -0.134 S2Ext=  0.222 S2=  2.243
 ExtSpn:  IState=    69 X2= 1.001 Y2= 0.001 X2-Y2-1= 1.11D-15
          S2Grnd=  2.021 Ra=  0.377 Rb=  0.297 T= -0.262 S2Ext=  0.412 S2=  2.433
 ExtSpn:  IState=    70 X2= 1.001 Y2= 0.001 X2-Y2-1= 4.44D-16
          S2Grnd=  2.021 Ra=  0.418 Rb=  0.140 T= -0.313 S2Ext=  0.245 S2=  2.266
 ExtSpn:  IState=    71 X2= 1.001 Y2= 0.001 X2-Y2-1= 1.11D-15
          S2Grnd=  2.021 Ra=  0.433 Rb=  0.092 T= -0.131 S2Ext=  0.394 S2=  2.415
 ExtSpn:  IState=    72 X2= 1.000 Y2= 0.000 X2-Y2-1= 4.44D-16
          S2Grnd=  2.021 Ra=  0.007 Rb=  0.013 T= -0.004 S2Ext=  0.016 S2=  2.037
 ExtSpn:  IState=    73 X2= 1.000 Y2= 0.000 X2-Y2-1= 2.22D-16
          S2Grnd=  2.021 Ra=  0.014 Rb=  0.005 T= -0.000 S2Ext=  0.020 S2=  2.040
 ExtSpn:  IState=    74 X2= 1.000 Y2= 0.000 X2-Y2-1= 2.22D-15
          S2Grnd=  2.021 Ra=  0.003 Rb=  0.012 T= -0.003 S2Ext=  0.012 S2=  2.033
 ExtSpn:  IState=    75 X2= 1.002 Y2= 0.002 X2-Y2-1=-9.99D-16
          S2Grnd=  2.021 Ra=  0.376 Rb=  0.340 T= -0.480 S2Ext=  0.236 S2=  2.257
 ExtSpn:  IState=    76 X2= 1.001 Y2= 0.001 X2-Y2-1=-6.66D-16
          S2Grnd=  2.021 Ra=  0.721 Rb=  0.114 T= -0.433 S2Ext=  0.401 S2=  2.422
 ExtSpn:  IState=    77 X2= 1.001 Y2= 0.001 X2-Y2-1=-2.00D-15
          S2Grnd=  2.021 Ra=  0.125 Rb=  0.122 T= -0.076 S2Ext=  0.171 S2=  2.192
 ExtSpn:  IState=    78 X2= 1.001 Y2= 0.001 X2-Y2-1= 2.22D-16
          S2Grnd=  2.021 Ra=  0.064 Rb=  0.087 T= -0.010 S2Ext=  0.142 S2=  2.163
 ExtSpn:  IState=    79 X2= 1.001 Y2= 0.001 X2-Y2-1= 8.88D-16
          S2Grnd=  2.021 Ra=  0.455 Rb=  0.358 T=  0.351 S2Ext=  1.164 S2=  3.185
 ExtSpn:  IState=    80 X2= 1.001 Y2= 0.001 X2-Y2-1=-1.55D-15
          S2Grnd=  2.021 Ra=  0.186 Rb=  0.471 T= -0.374 S2Ext=  0.284 S2=  2.305
 ExtSpn:  IState=    81 X2= 1.000 Y2= 0.000 X2-Y2-1= 2.22D-16
          S2Grnd=  2.021 Ra=  0.141 Rb=  0.799 T= -0.271 S2Ext=  0.669 S2=  2.690
 ExtSpn:  IState=    82 X2= 1.000 Y2= 0.000 X2-Y2-1=-1.11D-16
          S2Grnd=  2.021 Ra=  0.042 Rb=  0.133 T= -0.039 S2Ext=  0.137 S2=  2.157
 ExtSpn:  IState=    83 X2= 1.000 Y2= 0.000 X2-Y2-1= 4.44D-16
          S2Grnd=  2.021 Ra=  0.112 Rb=  0.044 T=  0.022 S2Ext=  0.178 S2=  2.198
 ExtSpn:  IState=    84 X2= 1.001 Y2= 0.001 X2-Y2-1=-2.22D-16
          S2Grnd=  2.021 Ra=  0.404 Rb=  0.219 T= -0.018 S2Ext=  0.604 S2=  2.625
 ExtSpn:  IState=    85 X2= 1.001 Y2= 0.001 X2-Y2-1=-2.22D-16
          S2Grnd=  2.021 Ra=  0.200 Rb=  0.095 T= -0.017 S2Ext=  0.278 S2=  2.299
 ExtSpn:  IState=    86 X2= 1.002 Y2= 0.002 X2-Y2-1=-4.44D-16
          S2Grnd=  2.021 Ra=  0.572 Rb=  0.258 T=  0.061 S2Ext=  0.891 S2=  2.912
 ExtSpn:  IState=    87 X2= 1.000 Y2= 0.000 X2-Y2-1= 4.44D-16
          S2Grnd=  2.021 Ra=  0.024 Rb=  0.026 T=  0.001 S2Ext=  0.050 S2=  2.071
 ExtSpn:  IState=    88 X2= 1.000 Y2= 0.000 X2-Y2-1= 2.22D-16
          S2Grnd=  2.021 Ra=  0.058 Rb=  0.402 T= -0.096 S2Ext=  0.364 S2=  2.385
 ExtSpn:  IState=    89 X2= 1.000 Y2= 0.000 X2-Y2-1= 2.22D-16
          S2Grnd=  2.021 Ra=  0.011 Rb=  0.546 T= -0.023 S2Ext=  0.535 S2=  2.556
 ExtSpn:  IState=    90 X2= 1.000 Y2= 0.000 X2-Y2-1= 2.22D-16
          S2Grnd=  2.021 Ra=  0.005 Rb=  0.104 T=  0.008 S2Ext=  0.118 S2=  2.139
 ExtSpn:  IState=    91 X2= 1.002 Y2= 0.002 X2-Y2-1=-4.44D-16
          S2Grnd=  2.021 Ra=  0.195 Rb=  0.625 T= -0.143 S2Ext=  0.677 S2=  2.698
 ExtSpn:  IState=    92 X2= 1.002 Y2= 0.002 X2-Y2-1=-1.11D-16
          S2Grnd=  2.021 Ra=  0.188 Rb=  0.552 T=  0.227 S2Ext=  0.967 S2=  2.988
 ExtSpn:  IState=    93 X2= 1.000 Y2= 0.000 X2-Y2-1=-1.22D-15
          S2Grnd=  2.021 Ra=  0.039 Rb=  0.118 T=  0.058 S2Ext=  0.215 S2=  2.235
 ExtSpn:  IState=    94 X2= 1.000 Y2= 0.000 X2-Y2-1= 4.44D-16
          S2Grnd=  2.021 Ra=  0.053 Rb=  0.190 T=  0.005 S2Ext=  0.248 S2=  2.269
 ExtSpn:  IState=    95 X2= 1.000 Y2= 0.000 X2-Y2-1=-2.22D-16
          S2Grnd=  2.021 Ra=  0.017 Rb=  0.030 T=  0.000 S2Ext=  0.047 S2=  2.068
 ExtSpn:  IState=    96 X2= 1.001 Y2= 0.001 X2-Y2-1=-1.11D-16
          S2Grnd=  2.021 Ra=  0.147 Rb=  0.339 T=  0.108 S2Ext=  0.593 S2=  2.614
 ExtSpn:  IState=    97 X2= 1.000 Y2= 0.000 X2-Y2-1=-1.11D-15
          S2Grnd=  2.021 Ra=  0.010 Rb=  0.953 T=  0.025 S2Ext=  0.987 S2=  3.008
 ExtSpn:  IState=    98 X2= 1.000 Y2= 0.000 X2-Y2-1= 4.44D-16
          S2Grnd=  2.021 Ra=  0.105 Rb=  0.084 T=  0.085 S2Ext=  0.274 S2=  2.295
 ExtSpn:  IState=    99 X2= 1.002 Y2= 0.002 X2-Y2-1= 0.00D+00
          S2Grnd=  2.021 Ra=  0.233 Rb=  0.611 T=  0.361 S2Ext=  1.205 S2=  3.226
 ExtSpn:  IState=   100 X2= 1.001 Y2= 0.001 X2-Y2-1= 4.44D-16
          S2Grnd=  2.021 Ra=  0.170 Rb=  0.214 T=  0.044 S2Ext=  0.428 S2=  2.449
 Ground to excited state transition densities written to RWF  633
 Ground to excited state transition electric dipole moments (Au):
       state          X           Y           Z        Dip. S.      Osc.
         1        -0.1684     -0.6352      0.0642      0.4359      0.0059
         2        -0.0716     -0.1112      0.0295      0.0184      0.0005
         3        -0.2166      0.1132      0.0920      0.0682      0.0019
         4         0.0370      0.0588      0.1608      0.0307      0.0011
         5         0.0057     -0.1715     -0.0045      0.0295      0.0012
         6         0.0240      0.5415     -0.0490      0.2962      0.0127
         7         0.0443      0.2489     -0.0126      0.0641      0.0028
         8        -0.0458     -0.1189     -0.0108      0.0163      0.0010
         9        -0.0799     -0.2046     -0.0086      0.0483      0.0029
        10         0.0958     -0.1270     -0.0445      0.0273      0.0018
        11         0.1507      0.0300     -0.0064      0.0237      0.0017
        12        -0.1094      0.0526     -0.0495      0.0172      0.0013
        13        -0.0993     -0.0948      0.0211      0.0193      0.0015
        14        -0.8297     -0.0798      0.0410      0.6964      0.0554
        15         0.1371     -0.4246     -0.0040      0.1991      0.0160
        16         0.0346      0.3468      0.0286      0.1223      0.0100
        17        -0.1869     -0.0086     -0.0005      0.0350      0.0029
        18         0.4324      0.4501      0.0367      0.3908      0.0333
        19         0.0008      0.2436      0.0582      0.0627      0.0054
        20        -0.0092     -0.0746      0.0224      0.0061      0.0005
        21        -0.3351      0.2242      0.0486      0.1649      0.0149
        22        -0.0147     -0.3719      0.0223      0.1390      0.0126
        23         0.0198      0.1917      0.0738      0.0426      0.0039
        24        -0.2127      0.1011      0.0224      0.0559      0.0052
        25        -0.0610      0.0078     -0.1268      0.0199      0.0019
        26         0.0081      0.3370     -0.0172      0.1139      0.0109
        27        -0.0922     -0.1536      0.0001      0.0321      0.0031
        28         0.3651      0.0016     -0.0558      0.1364      0.0135
        29         0.1385      0.1464     -0.1001      0.0506      0.0050
        30        -0.5414     -0.0871      0.0371      0.3020      0.0305
        31         0.4801     -0.2127     -0.0706      0.2807      0.0285
        32         0.1479      0.0482      0.1035      0.0349      0.0036
        33        -0.0547      0.0020     -0.1475      0.0248      0.0025
        34         0.4490     -0.2337      0.0238      0.2568      0.0264
        35        -0.1182      0.2172     -0.0089      0.0612      0.0064
        36        -0.0758     -0.1271     -0.0726      0.0272      0.0029
        37         0.0062     -0.1911      0.0076      0.0366      0.0039
        38        -0.2202      0.1139      0.0217      0.0619      0.0067
        39        -0.1185      0.0822      0.0491      0.0232      0.0025
        40         0.0848     -0.0396     -0.0159      0.0090      0.0010
        41         0.0810      0.3130     -0.0659      0.1089      0.0121
        42         0.0986      0.0265     -0.0509      0.0130      0.0014
        43        -0.3828      0.1063      0.0975      0.1674      0.0190
        44         0.0389      0.2253     -0.0755      0.0580      0.0066
        45        -0.1164     -0.0954      0.0707      0.0276      0.0032
        46        -0.1233     -0.0600     -0.0265      0.0195      0.0022
        47         0.1948      0.1425     -0.0302      0.0592      0.0068
        48         0.1730     -0.2143     -0.0784      0.0820      0.0095
        49         0.0766      0.0106     -0.1040      0.0168      0.0019
        50         0.1231      0.1007      0.0087      0.0254      0.0029
        51        -0.0411      0.0227     -0.0262      0.0029      0.0003
        52        -0.1077      0.0086      0.0065      0.0117      0.0014
        53         0.0556     -0.1476      0.0205      0.0253      0.0030
        54         0.0207     -0.1685     -0.0516      0.0315      0.0037
        55        -0.1429      0.0841      0.1022      0.0379      0.0045
        56        -0.0269     -0.0388      0.0128      0.0024      0.0003
        57         0.0083      0.0010      0.0362      0.0014      0.0002
        58        -0.0222     -0.0004      0.1000      0.0105      0.0013
        59        -0.1535     -0.2754     -0.0346      0.1006      0.0122
        60         0.1703      0.0018     -0.0304      0.0299      0.0036
        61         0.2545     -0.1785      0.0213      0.0971      0.0118
        62         0.0841     -0.1050      0.0638      0.0222      0.0027
        63        -0.2644     -0.0107     -0.0268      0.0707      0.0087
        64         0.1022     -0.0916      0.0313      0.0198      0.0024
        65        -0.0696      0.0073      0.0853      0.0122      0.0015
        66        -0.2690      0.0325      0.0669      0.0779      0.0097
        67        -0.3870      0.0626     -0.0571      0.1570      0.0196
        68         0.4327     -0.0386      0.0334      0.1898      0.0238
        69        -0.3334      0.3252      0.1093      0.2289      0.0288
        70         0.2081      0.2953     -0.1707      0.1596      0.0202
        71        -0.0241     -0.0818      0.1132      0.0201      0.0026
        72         0.0519     -0.0066     -0.0400      0.0043      0.0006
        73         0.1151     -0.0093      0.0244      0.0139      0.0018
        74         0.0357      0.1017     -0.0292      0.0125      0.0016
        75         0.7534     -0.1486      0.0473      0.5920      0.0772
        76        -0.2411     -0.0988     -0.0047      0.0679      0.0089
        77        -0.4135     -0.0888      0.0443      0.1808      0.0237
        78         0.0302     -0.0968     -0.0385      0.0118      0.0015
        79         0.5183      0.0009     -0.0823      0.2754      0.0363
        80        -0.7027     -0.3129      0.0372      0.5931      0.0783
        81         0.0418     -0.0085      0.0082      0.0019      0.0003
        82        -0.2024      0.0377      0.0090      0.0425      0.0057
        83        -0.0950      0.0333      0.0193      0.0105      0.0014
        84         0.3040      0.0418      0.0231      0.0947      0.0128
        85         0.0138     -0.0547      0.0886      0.0110      0.0015
        86        -1.3737      0.0314      0.0500      1.8906      0.2576
        87        -0.2209      0.0055     -0.0291      0.0497      0.0068
        88        -0.2037      0.0552      0.0453      0.0466      0.0064
        89         0.1856      0.2414     -0.0308      0.0936      0.0128
        90        -0.1152      0.0584      0.0106      0.0168      0.0023
        91        -0.4716      0.0268     -0.2468      0.2841      0.0391
        92        -0.1892     -0.0206      0.0881      0.0440      0.0061
        93         0.1950      0.0270     -0.0575      0.0421      0.0058
        94         0.2409     -0.0663     -0.0079      0.0625      0.0087
        95        -0.1783      0.0727     -0.0053      0.0371      0.0052
        96        -0.2823      0.0136     -0.0265      0.0806      0.0112
        97         0.0124      0.1008      0.0459      0.0124      0.0017
        98         0.0001     -0.0583     -0.0261      0.0041      0.0006
        99        -0.3200      0.0166     -0.0325      0.1037      0.0146
       100        -0.0832     -0.0108      0.0142      0.0072      0.0010
 Ground to excited state transition velocity dipole moments (Au):
       state          X           Y           Z        Dip. S.      Osc.
         1         0.0015      0.0121     -0.0028      0.0002      0.0051
         2        -0.0009      0.0026     -0.0000      0.0000      0.0001
         3         0.0128     -0.0025     -0.0062      0.0002      0.0033
         4         0.0008     -0.0061     -0.0043      0.0001      0.0007
         5        -0.0019      0.0090     -0.0022      0.0001      0.0010
         6        -0.0001     -0.0333      0.0069      0.0012      0.0120
         7        -0.0035     -0.0152      0.0034      0.0003      0.0026
         8         0.0046      0.0087     -0.0005      0.0001      0.0007
         9         0.0074      0.0140      0.0034      0.0003      0.0019
        10        -0.0088      0.0091      0.0032      0.0002      0.0012
        11        -0.0131     -0.0058     -0.0001      0.0002      0.0013
        12         0.0118     -0.0071      0.0045      0.0002      0.0012
        13         0.0123      0.0090     -0.0008      0.0002      0.0013
        14         0.0946      0.0103     -0.0043      0.0091      0.0506
        15        -0.0139      0.0478      0.0005      0.0025      0.0137
        16        -0.0049     -0.0400     -0.0025      0.0016      0.0089
        17         0.0230      0.0026     -0.0002      0.0005      0.0029
        18        -0.0519     -0.0555     -0.0034      0.0058      0.0302
        19        -0.0002     -0.0333     -0.0070      0.0012      0.0060
        20         0.0021      0.0102     -0.0043      0.0001      0.0006
        21         0.0435     -0.0298     -0.0057      0.0028      0.0138
        22         0.0058      0.0481     -0.0049      0.0024      0.0116
        23        -0.0012     -0.0250     -0.0104      0.0007      0.0036
        24         0.0265     -0.0093     -0.0031      0.0008      0.0038
        25         0.0034      0.0011      0.0134      0.0002      0.0009
        26         0.0027     -0.0436      0.0008      0.0019      0.0089
        27         0.0146      0.0208      0.0053      0.0007      0.0031
        28        -0.0579     -0.0020      0.0074      0.0034      0.0153
        29        -0.0203     -0.0225      0.0167      0.0012      0.0053
        30         0.0776      0.0080     -0.0051      0.0061      0.0269
        31        -0.0724      0.0329      0.0119      0.0065      0.0283
        32        -0.0216     -0.0083     -0.0122      0.0007      0.0030
        33         0.0061     -0.0021      0.0228      0.0006      0.0025
        34        -0.0650      0.0360     -0.0032      0.0055      0.0239
        35         0.0181     -0.0322     -0.0003      0.0014      0.0058
        36         0.0115      0.0165      0.0113      0.0005      0.0023
        37        -0.0013      0.0283      0.0027      0.0008      0.0033
        38         0.0377     -0.0213     -0.0062      0.0019      0.0078
        39         0.0155     -0.0142     -0.0077      0.0005      0.0020
        40        -0.0175      0.0084      0.0016      0.0004      0.0015
        41        -0.0132     -0.0484      0.0134      0.0027      0.0108
        42        -0.0161     -0.0027      0.0090      0.0003      0.0014
        43         0.0623     -0.0178     -0.0177      0.0045      0.0176
        44        -0.0000     -0.0254      0.0090      0.0007      0.0028
        45         0.0216      0.0133     -0.0109      0.0008      0.0030
        46         0.0231      0.0106      0.0051      0.0007      0.0026
        47        -0.0348     -0.0258      0.0048      0.0019      0.0073
        48        -0.0307      0.0354      0.0191      0.0026      0.0099
        49        -0.0151     -0.0084      0.0239      0.0009      0.0034
        50        -0.0224     -0.0217     -0.0012      0.0010      0.0037
        51         0.0076     -0.0025      0.0049      0.0001      0.0003
        52         0.0187      0.0041     -0.0036      0.0004      0.0014
        53        -0.0091      0.0265     -0.0070      0.0008      0.0032
        54         0.0036      0.0354      0.0090      0.0013      0.0051
        55         0.0232     -0.0104     -0.0180      0.0010      0.0036
        56         0.0027      0.0054      0.0016      0.0000      0.0001
        57        -0.0005     -0.0042     -0.0062      0.0001      0.0002
        58         0.0031      0.0009     -0.0202      0.0004      0.0015
        59         0.0304      0.0504      0.0039      0.0035      0.0127
        60        -0.0317      0.0002      0.0058      0.0010      0.0038
        61        -0.0488      0.0315     -0.0052      0.0034      0.0124
        62        -0.0162      0.0215     -0.0128      0.0009      0.0032
        63         0.0469      0.0002      0.0065      0.0022      0.0081
        64        -0.0226      0.0195     -0.0087      0.0010      0.0035
        65         0.0162      0.0005     -0.0211      0.0007      0.0025
        66         0.0499     -0.0092     -0.0121      0.0027      0.0097
        67         0.0753     -0.0114      0.0115      0.0059      0.0211
        68        -0.0840      0.0083     -0.0084      0.0072      0.0255
        69         0.0617     -0.0595     -0.0206      0.0078      0.0274
        70        -0.0416     -0.0565      0.0285      0.0057      0.0201
        71         0.0031      0.0171     -0.0179      0.0006      0.0022
        72        -0.0096      0.0010      0.0075      0.0002      0.0005
        73        -0.0248      0.0007     -0.0038      0.0006      0.0022
        74        -0.0077     -0.0204      0.0052      0.0005      0.0017
        75        -0.1525      0.0260     -0.0066      0.0240      0.0817
        76         0.0489      0.0218      0.0045      0.0029      0.0098
        77         0.0798      0.0183     -0.0086      0.0068      0.0229
        78        -0.0012      0.0164      0.0096      0.0004      0.0012
        79        -0.0968      0.0013      0.0155      0.0096      0.0324
        80         0.1340      0.0604     -0.0116      0.0217      0.0732
        81        -0.0058      0.0017     -0.0043      0.0001      0.0002
        82         0.0434     -0.0081      0.0012      0.0020      0.0065
        83         0.0217     -0.0041      0.0024      0.0005      0.0016
        84        -0.0606     -0.0070     -0.0111      0.0038      0.0127
        85        -0.0052      0.0103     -0.0177      0.0004      0.0015
        86         0.2833     -0.0077     -0.0091      0.0804      0.2622
        87         0.0473     -0.0009      0.0042      0.0023      0.0073
        88         0.0403     -0.0113     -0.0071      0.0018      0.0058
        89        -0.0372     -0.0482      0.0070      0.0038      0.0122
        90         0.0237     -0.0120     -0.0021      0.0007      0.0023
        91         0.0935     -0.0060      0.0386      0.0103      0.0331
        92         0.0404      0.0025     -0.0184      0.0020      0.0063
        93        -0.0403     -0.0039      0.0114      0.0018      0.0057
        94        -0.0507      0.0144     -0.0001      0.0028      0.0089
        95         0.0434     -0.0130      0.0078      0.0021      0.0068
        96         0.0569     -0.0054      0.0064      0.0033      0.0106
        97        -0.0006     -0.0196     -0.0067      0.0004      0.0014
        98        -0.0040      0.0137      0.0023      0.0002      0.0007
        99         0.0683     -0.0012      0.0054      0.0047      0.0148
       100         0.0129      0.0018     -0.0062      0.0002      0.0007
 Ground to excited state transition magnetic dipole moments (Au):
       state          X           Y           Z
         1        -0.0294      0.0286     -0.0635
         2        -0.0601      0.6268     -0.0403
         3        -0.6171      0.0327     -1.1022
         4        -0.5135     -0.1381      0.0069
         5        -0.1084     -0.0364     -0.2086
         6         0.0941      0.0620     -0.0202
         7         0.0170     -0.0504     -0.0216
         8        -0.1742     -0.0279     -0.2619
         9        -0.2556      0.0448      0.2076
        10         0.0314     -0.3428     -0.1488
        11         0.1884      0.0266      0.2984
        12         0.0747      0.1794      0.0491
        13        -0.0235      0.0404     -0.1497
        14         0.0832      0.1325     -0.3914
        15         0.1090      0.0081      0.0586
        16         0.0451     -0.0015     -0.1154
        17         0.0824      0.0200     -0.1094
        18         0.0710      0.1721      0.0861
        19         0.0332     -0.0148     -0.1397
        20         0.0870      0.0541     -0.0169
        21        -0.1073     -0.1279     -0.0536
        22         0.1788      0.0439     -0.0532
        23         0.1053     -0.2388      0.0505
        24         0.3433      0.3511      0.0855
        25        -0.1238     -0.1907     -0.2358
        26         0.0947     -0.0670      0.1122
        27         0.0948     -0.1071      0.0512
        28        -0.1012      0.1430      0.8407
        29        -0.1244     -0.1373     -0.1390
        30        -0.1715      0.4524      0.0479
        31        -0.1071     -0.2402     -0.1769
        32         0.0425      0.0137      0.1554
        33        -0.1622      0.3107      0.0547
        34         0.0472     -0.4834     -0.1012
        35         0.1518      0.1021      0.0224
        36         0.0618     -0.0094     -0.2193
        37        -0.1369     -0.0634      0.2962
        38         0.0487      0.1997      0.3321
        39        -0.0761      0.0877      0.1522
        40         0.0105     -0.0617     -0.3287
        41         0.1232      0.0855      0.0557
        42         0.0050     -0.1875     -0.0400
        43        -0.1553      0.2241     -0.4413
        44         0.6996     -0.1274      0.8459
        45        -0.1870     -0.0876      0.5540
        46         0.0672      0.0750     -0.3152
        47        -0.0972      0.0887     -0.4027
        48         0.1210     -0.0069      0.1633
        49        -0.0679      0.0718      0.2445
        50        -0.1777     -0.0076      0.3774
        51         0.1192      0.0343      0.1173
        52         0.2795     -0.0452      0.0337
        53        -0.0896      0.0185      0.0093
        54         0.3505     -0.0765      0.5089
        55        -0.2890     -0.1680     -0.9937
        56         0.0411     -0.0139     -0.0981
        57        -0.0081      0.0399      0.1354
        58         0.1616     -0.0501     -0.2644
        59         0.1262     -0.1765      0.1272
        60        -0.1089     -0.0770     -0.1848
        61         0.1289      0.2150     -0.0328
        62        -0.0948      0.2200     -0.4903
        63        -0.1897     -0.0833     -0.0322
        64         0.2110      0.1959     -0.5492
        65        -0.0871     -0.1141      0.3391
        66        -0.4821     -0.1372     -0.8832
        67         0.0428     -0.2041     -0.0413
        68         0.0604      0.2922      0.0537
        69         0.2187      0.0189      0.0595
        70        -0.1549      0.1269     -0.0754
        71         0.0921      0.0219      0.0364
        72         0.0692     -0.0159      0.0723
        73        -0.0688      0.0154     -0.1920
        74         0.0138      0.0359     -0.0587
        75         0.1417      0.1330     -0.6036
        76        -0.2700     -0.0302     -0.0050
        77        -0.0009      0.1136      0.0848
        78         0.2508      0.1190     -0.0051
        79        -0.1323     -0.0925     -0.4736
        80         0.2419      0.2596      0.4874
        81        -0.1364     -0.0693     -0.3642
        82        -0.0932     -0.0618      0.2028
        83         0.1075      0.0576      0.3426
        84        -0.1868     -0.0571     -0.8613
        85        -0.0377     -0.1351     -0.3862
        86        -0.1287      0.1481      0.3324
        87        -0.0207     -0.0358     -0.0148
        88         0.0615      0.0899     -0.0842
        89        -0.0884     -0.0588      0.0600
        90        -0.0819     -0.0453      0.0253
        91         0.0556      0.0960      0.3421
        92         0.0712     -0.0461      0.0169
        93         0.0235     -0.0030      0.1344
        94         0.0467     -0.0544     -0.2242
        95         0.0575     -0.0000      0.0130
        96        -0.0100      0.1689      0.2826
        97        -0.0040     -0.0017     -0.0569
        98        -0.0287      0.1543      0.0022
        99        -0.0117      0.0675      0.0723
       100        -0.1608      0.0230     -0.1789
 Ground to excited state transition velocity quadrupole moments (Au):
       state          XX          YY          ZZ          XY          XZ          YZ
         1        -0.0434      0.0670     -0.0114      0.0004     -0.0028     -0.0145
         2        -0.0117      0.0117      0.0068     -0.0066      0.0056      0.0023
         3         0.0050     -0.0102      0.0065      0.0024     -0.0018     -0.0082
         4         0.0911     -0.0571      0.0170     -0.0212      0.0018      0.0089
         5         0.0108      0.0633      0.0078     -0.0102     -0.0067     -0.0178
         6         0.0269     -0.1481      0.0340      0.0083      0.0006      0.0113
         7         0.0349     -0.0941      0.0152      0.0032     -0.0067      0.0141
         8        -0.1096      0.0615     -0.0118      0.0197      0.0114     -0.0225
         9        -0.2089      0.0934     -0.0237     -0.0223      0.0237     -0.0036
        10        -0.2200      0.0612      0.0009      0.0314      0.0056     -0.0027
        11         0.0050      0.0642     -0.0149      0.0495      0.0060      0.0150
        12        -0.1596     -0.0879      0.0344     -0.0076      0.0268      0.0012
        13        -0.0010      0.0157      0.0132     -0.0269      0.0233      0.0325
        14        -0.0101      0.0245     -0.0071     -0.0392     -0.0146      0.0631
        15         0.1319     -0.1353      0.0987      0.0063      0.0288     -0.0094
        16         0.1077     -0.2000      0.0387      0.0252      0.0001      0.0269
        17         0.0483     -0.0904      0.0287     -0.0098     -0.0039      0.0154
        18        -0.3804      0.2566     -0.1144      0.0864      0.0533     -0.0183
        19         0.0328     -0.2347      0.0539     -0.0548     -0.0901      0.0236
        20        -0.0299      0.0214     -0.0543      0.0080     -0.0338     -0.0094
        21        -0.2007      0.1482     -0.0699     -0.0338     -0.0010      0.0347
        22        -0.2340      0.4215     -0.0945      0.0329      0.0464     -0.0063
        23        -0.3594      0.2797     -0.1067      0.0196      0.0431      0.0112
        24        -0.0664     -0.0188     -0.0283     -0.0137     -0.0349      0.0324
        25        -0.0059      0.0318     -0.0193     -0.0489      0.0994     -0.0507
        26         0.2042     -0.2990      0.1008      0.0363      0.0021      0.0280
        27        -0.0451      0.2237     -0.0122      0.0593      0.1037      0.1093
        28        -0.0049      0.0203      0.0124      0.0686     -0.0666     -0.0690
        29         0.1194      0.0548     -0.0166      0.1090     -0.1922     -0.0071
        30        -0.1247      0.2968     -0.0500     -0.0551     -0.0863      0.0576
        31        -0.0359      0.0075     -0.0346      0.1637      0.1352     -0.0758
        32        -0.0029      0.0110     -0.0532      0.0140     -0.0375      0.0406
        33        -0.1374     -0.1190      0.0310      0.1068      0.0553      0.0117
        34         0.0661      0.0932      0.0214      0.0473      0.0185     -0.0834
        35         0.0641     -0.1287      0.0262     -0.0282     -0.0445      0.0366
        36        -0.0547      0.1370     -0.0055      0.0765     -0.0286      0.0480
        37         0.0036      0.2064     -0.0365     -0.0344      0.0247      0.0398
        38        -0.0641     -0.0531      0.0064     -0.0492     -0.0641      0.0184
        39         0.0279      0.0314     -0.0198     -0.0723     -0.0814      0.0218
        40        -0.0189      0.0526     -0.0161      0.0194     -0.0193     -0.0208
        41         0.2446     -0.3084      0.0636     -0.0087      0.0167      0.0309
        42        -0.0680     -0.2513      0.0468      0.0146      0.0995     -0.0081
        43         0.0216     -0.1779      0.0721      0.0705     -0.0254     -0.0338
        44         0.0378     -0.2810      0.0763     -0.0955     -0.0428      0.0558
        45        -0.1379      0.2340     -0.0845     -0.0679      0.0410      0.0105
        46        -0.1576      0.0919      0.0020     -0.0014      0.0018     -0.0172
        47         0.0531     -0.1625      0.0279     -0.0030     -0.0012     -0.0100
        48        -0.0075      0.1866     -0.0659      0.0488      0.0057      0.0411
        49         0.0208     -0.1063      0.0307      0.0144      0.0122      0.0130
        50         0.1019     -0.1642      0.0329     -0.0181      0.0316     -0.0171
        51        -0.0710      0.0298     -0.0244     -0.0383     -0.0014      0.0672
        52        -0.1040     -0.0139      0.0143      0.0091     -0.0126      0.0284
        53         0.1795      0.1334     -0.0447     -0.0240     -0.0252     -0.0239
        54        -0.2159      0.3073     -0.0936     -0.0403      0.0138     -0.0369
        55         0.0645     -0.0900      0.0172      0.1420     -0.0253     -0.1262
        56        -0.2100      0.0717     -0.0284      0.0416      0.0139      0.0049
        57        -0.1184     -0.0594      0.0483      0.0420      0.0204     -0.0467
        58         0.0372     -0.0276      0.0161     -0.0929      0.0545      0.0230
        59        -0.2291      0.4237     -0.0819      0.0245      0.0989     -0.0377
        60        -0.1214     -0.1331      0.0184      0.0876      0.1188     -0.0479
        61        -0.0161      0.0863     -0.0127     -0.0128     -0.0647      0.0206
        62         0.0378      0.0390      0.0500      0.1160     -0.0972     -0.0878
        63         0.0271     -0.0595      0.0290     -0.0156      0.0425      0.0430
        64        -0.0028      0.0197      0.0407      0.1024     -0.0687     -0.0187
        65         0.1265      0.0273      0.0381      0.0063      0.0629     -0.1307
        66        -0.0418     -0.0057      0.0003      0.2273     -0.0296     -0.1558
        67         0.0227     -0.0008      0.0069      0.0176     -0.0223      0.0254
        68         0.0704     -0.1263      0.0096     -0.0541     -0.1036     -0.0262
        69         0.0519     -0.3328     -0.0079     -0.0395      0.0670      0.0756
        70         0.0250     -0.4900      0.1146      0.0861      0.0192     -0.0575
        71         0.0557      0.0124     -0.0262      0.0944     -0.0167     -0.0287
        72        -0.0613      0.0297     -0.0186      0.0162      0.0558     -0.0027
        73         0.0192      0.0532     -0.0234      0.0255      0.0148      0.0085
        74         0.1088     -0.1091      0.0564     -0.0018     -0.0599      0.0090
        75        -0.1237      0.3949     -0.0564      0.0471      0.0561     -0.0673
        76         0.0075     -0.0265      0.0319      0.0493      0.0247     -0.0238
        77        -0.1215      0.0818     -0.0208     -0.0180      0.0144      0.0603
        78        -0.0646      0.2045     -0.0445      0.0600     -0.0427      0.0773
        79         0.1566     -0.0705      0.0062      0.0881     -0.1154     -0.1478
        80         0.0085      0.1222      0.0603     -0.0754     -0.0277      0.1589
        81        -0.0116     -0.0722      0.0162      0.0281      0.0232     -0.0545
        82        -0.0293     -0.0238     -0.0091      0.0202     -0.0454      0.0060
        83         0.0220     -0.0079      0.0054     -0.0436      0.0492      0.0892
        84        -0.0216     -0.0709      0.0704      0.2085      0.0534     -0.1532
        85        -0.0144      0.0259      0.0860      0.0916      0.0190     -0.0130
        86         0.0070     -0.0147     -0.0374     -0.0521     -0.0575      0.0847
        87         0.0909     -0.1238      0.0567     -0.0340     -0.0497     -0.0291
        88         0.0791     -0.1037     -0.0516     -0.0096     -0.0825      0.0666
        89         0.1933     -0.3715      0.1055     -0.0214     -0.0042     -0.0261
        90        -0.1076     -0.0928      0.0052     -0.0150      0.0379      0.0030
        91         0.0111     -0.0446      0.1057     -0.0109     -0.0034      0.0123
        92         0.0170     -0.0271      0.0137     -0.0561      0.0744      0.1052
        93         0.1154     -0.0538      0.0092      0.0446      0.0016     -0.0358
        94        -0.2861      0.0970      0.0041      0.0259      0.0978     -0.0294
        95        -0.0135     -0.1568      0.0193      0.0498     -0.0011      0.1219
        96        -0.1650      0.0498     -0.0435     -0.0145     -0.0360     -0.0046
        97         0.0116     -0.1827      0.0528     -0.0209      0.0115      0.0265
        98        -0.0335      0.1261     -0.0448      0.0496     -0.0678     -0.1065
        99        -0.0009      0.1449     -0.0487     -0.0176     -0.0499     -0.0239
       100        -0.1633      0.0458     -0.0028      0.0517     -0.0491     -0.0582
 <0|del|b> * <b|rxdel|0> + <0|del|b> * <b|delr+rdel|0>
 Rotatory Strengths (R) in cgs (10**-40 erg-esu-cm/Gauss)
       state          XX          YY          ZZ    R(velocity)    E-M Angle
         1         9.7458      1.9891      5.0426      5.5925       59.43
         2        14.9064      0.4802     15.6684     10.3516       13.54
         3        56.6480     -9.9017    -66.4210     -6.5582       93.66
         4         6.0142     -3.5904      2.5753      1.6664       84.56
         5         1.2587      3.8727     -1.2280      1.3011       81.22
         6       -11.6925     -1.1443    -11.4846     -8.1071      124.67
         7         3.1996     -1.0298      4.5589      2.2429       46.33
         8        -0.8723     -3.0155     -3.3365     -2.4081      106.97
         9         3.6236     -4.4165     -3.5317     -1.4416       95.90
        10       -12.7013     -2.9742    -12.0565     -9.2440      142.34
        11        -0.5554     -8.7841     -8.0044     -5.7813      121.72
        12        -2.8352      3.6344     -1.8869     -0.3626       93.40
        13         0.9163      0.6464     -0.3537      0.4030       85.23
        14         9.9152     45.4337      9.2279     21.5256       74.24
        15        -2.8204     -3.9979      0.3427     -2.1585      100.28
        16         0.8304     -0.0046     -0.0858      0.2467       88.53
        17         0.2407      6.4124      4.4739      3.7090       52.11
        18       -19.8462     -7.5619    -47.4251    -24.9444      150.14
        19        -3.1529      1.5740      9.5339      2.6517       72.74
        20         2.4673      0.7117      1.0781      1.4190       46.44
        21        11.1391     -7.9372     -6.1040     -0.9674       93.43
        22        -0.0617      3.7045     14.0431      5.8953       68.56
        23        16.1625     -1.1765     12.2347      9.0736       42.46
        24        -9.5724     24.2724     13.3586      9.3529       66.68
        25       -10.3584     -7.7506     -0.8797     -6.3296      146.66
        26         7.7109      0.9505      7.4119      5.3578       62.45
        27        -9.1719      7.0951     -0.6859     -0.9209       98.35
        28        14.9758     37.0729      4.0692     18.7060       76.43
        29        -4.0996     -3.4825     23.1364      5.1848       65.76
        30        10.1405    -21.8687    -34.6685    -15.4656      105.16
        31       -29.0550     21.3361     -2.7777     -3.4989       95.09
        32        -5.7513     -8.1319      0.3599     -4.5078      133.81
        33         7.2447     -4.8693     -4.2559     -0.6268       92.78
        34       -41.1522      6.5022    -57.9814    -30.8772      123.13
        35       -10.6606      7.6638      0.5099     -0.8290       94.64
        36        -2.9118     -4.6829     -1.0538     -2.8828      111.47
        37        -3.8896      2.2463     -1.8771     -1.1735       94.89
        38       -15.9479      0.3642     -3.7695     -6.4511      105.16
        39        -6.5176     -5.5669     -3.4652     -5.1832      147.19
        40        -1.8203     -0.7957     -2.6503     -1.7554      100.80
        41        -5.7513     -2.5036    -13.1180     -7.1243      127.20
        42         1.1534     -0.9304      0.0553      0.0927       90.00
        43         4.4163     -5.6327    -23.0196     -8.0787       99.66
        44        18.4647     17.5231      8.9012     14.9630       68.65
        45       -14.5140    -21.9092    -10.0875    -15.5036      133.59
        46        -1.6986     -0.8941      5.6916      1.0330       84.96
        47        -8.7499      3.7275      1.5986     -1.1413       92.59
        48         7.3794     -5.6971     -5.1062     -1.1413       94.66
        49        11.6343     12.9419      1.0412      8.5392       36.32
        50         0.8148      7.8470      6.2403      4.9673       73.63
        51         0.6078      4.4286      0.6319      1.8894       29.48
        52        -0.5762     11.4548      9.0117      6.6301       27.52
        53         2.5389      1.5934      0.8329      1.6551       62.30
        54         2.0082     12.0907     -1.6835      4.1384       82.20
        55        33.3601     21.4213     -3.5219     17.0865       66.72
        56        -0.4786     -0.1985      0.1956     -0.1605      100.40
        57        -2.3126     -1.0803     -0.5377     -1.3102      160.77
        58        13.9566      7.9050      0.8472      7.5696       25.52
        59       -25.7957      6.0152      2.0939     -5.8955      107.87
        60        -1.1678      6.5765      3.7656      3.0581       71.21
        61        17.4522    -13.8971     -1.0814      0.8246       87.51
        62        22.4210     20.6712      5.3190     16.1371       39.56
        63        -0.6476    -13.3670    -20.8984    -11.6377      156.78
        64        17.2747      2.5642     -5.1607      4.8927       78.48
        65       -14.0169    -20.0562      1.2957    -10.9258      151.63
        66        16.8611    -34.8406    -27.8922    -15.2906      103.23
        67         3.4031      8.3913      7.3442      6.3795       71.92
        68         6.1881     -7.1004    -10.7481     -3.8868       96.92
        69         4.5873     30.1599      6.9448     13.8973       56.25
        70       -10.7399      7.9005     -7.8000     -3.5465      100.17
        71        -3.1156      2.2854      0.8549      0.0082       90.00
        72         1.0894     -0.4048     -1.2004     -0.1719       96.48
        73         1.1454      4.2332      3.5512      2.9766       61.64
        74        -4.1338     -0.8654      0.8230     -1.3921      136.73
        75        10.2772    -12.7159    -48.7007    -17.0465       98.29
        76        -1.8009    -26.2765    -21.8724    -16.6499      161.96
        77         2.2422      6.9291     -4.5406      1.5436       83.66
        78         5.6978     -1.8051      1.8794      1.9240       72.27
        79       -10.6643     32.8823     -3.1669      6.3504       83.77
        80        22.4265     84.1997     44.8645     50.4969       61.50
        81         2.2886      4.9645      0.7026      2.6519       40.18
        82         0.7093     -6.2935     -6.0687     -3.8843      108.84
        83         1.2170      9.1424     -0.0683      3.4304       68.72
        84        14.0497     56.8119      3.6036     24.8217       67.10
        85         6.3137     15.2100     -1.8673      6.5521       49.59
        86        -7.1569    -27.6262   -105.7808    -46.8546      111.79
        87        -0.3741     -3.9287      0.8185     -1.1614      118.95
        88        -2.2145      9.7966     -0.4982      2.3613       69.38
        89         4.9902      8.3144      9.2018      7.5021       28.93
        90         1.6837     -3.3574     -3.3087     -1.6608      124.09
        91        20.8680     34.1895      5.9905     20.3494       60.70
        92         0.7102      9.8424     -2.2131      2.7798       50.47
        93         3.5139      2.5916     -4.0546      0.6836       83.97
        94        -3.6822     -1.4408     -5.4807     -3.5346      104.60
        95         0.8037     12.7054     -4.7046      2.9348       16.63
        96         1.0562      1.8188     -1.7187      0.3855       88.97
        97         1.3207      0.3865     -0.2945      0.4709       69.26
        98         5.3257      0.7156      1.4805      2.5072        9.92
        99         0.2515     -3.2564      1.3588     -0.5487       94.13
       100         1.5210     -2.3484     -2.2885     -1.0386      105.55
 1/2[<0|r|b>*<b|rxdel|0> + (<0|rxdel|b>*<b|r|0>)*]
 Rotatory Strengths (R) in cgs (10**-40 erg-esu-cm/Gauss)
       state          XX          YY          ZZ     R(length)
         1        -3.5003     12.8541      2.8835      4.0791
         2        -3.0413     49.2953      0.8414     15.6985
         3       -94.5317     -2.6170     71.7414     -8.4691
         4        13.4363      5.7458     -0.7887      6.1312
         5         0.4371     -4.4116     -0.6641     -1.5462
         6        -1.5989    -23.7521     -0.7012     -8.6841
         7        -0.5319      8.8703     -0.1921      2.7154
         8        -5.6481     -2.3452     -1.9949     -3.3294
         9       -14.4457      6.4758      1.2614     -2.2362
        10        -2.1253    -30.7793     -4.6846    -12.5297
        11       -20.0779     -0.5642      1.3479     -6.4314
        12         5.7819     -6.6791      1.7210      0.2746
        13        -1.6529      2.7076      2.2342      1.0963
        14        48.8323      7.4768     11.3495     22.5529
        15       -10.5624      2.4288      0.1678     -2.6553
        16        -1.1043      0.3759      2.3352      0.5356
        17        10.8868      0.1220     -0.0406      3.6561
        18       -21.7203    -54.7807     -2.2350    -26.2453
        19        -0.0197      2.5549      5.7542      2.7631
        20         0.5664      2.8531      0.2666      1.2287
        21       -25.4358     20.2722      1.8427     -1.1070
        22         1.8620     11.5334      0.8390      4.7448
        23        -1.4727     32.3623     -2.6366      9.4177
        24        51.6321    -25.0942     -1.3535      8.3948
        25        -5.3396      1.0521    -21.1477     -8.4784
        26        -0.5404     15.9685      1.3636      5.5972
        27         6.1751    -11.6350     -0.0034     -1.8211
        28        26.1260     -0.1591     33.1450     19.7040
        29        12.1877     14.2199     -9.8371      5.5235
        30       -65.6600     27.8775     -1.2559    -13.0128
        31        36.3491    -36.1265     -8.8401     -2.8725
        32        -4.4424     -0.4654    -11.3737     -5.4272
        33        -6.2724     -0.4409      5.7057     -0.3359
        34       -14.9862    -79.8976      1.7000    -31.0613
        35        12.6892    -15.6846      0.1414     -0.9514
        36         3.3123     -0.8414    -11.2606     -2.9299
        37         0.6049     -8.5689     -1.5922     -3.1854
        38         7.5800    -16.0866     -5.0906     -4.5324
        39        -6.3757     -5.0989     -5.2848     -5.5865
        40        -0.6313     -1.7301     -3.6940     -2.0185
        41        -7.0593    -18.9188      2.5948     -7.7945
        42        -0.3465      3.5132     -1.4399      0.5756
        43       -42.0506    -16.8479     30.4165     -9.4940
        44       -19.2515     20.3024     45.1455     15.3988
        45       -15.3923     -5.9098    -27.6799    -16.3273
        46         5.8591      3.1851     -5.9181      1.0420
        47        13.3949     -8.9404     -8.6115     -1.3857
        48       -14.8062     -1.0528      9.0585     -2.2668
        49         3.6778     -0.5385     17.9901      7.0431
        50        15.4787      0.5402     -2.3244      4.5648
        51         3.4671     -0.5494      2.1711      1.6963
        52        21.2901      0.2763     -0.1550      7.1371
        53         3.5216      1.9281     -0.1342      1.7719
        54        -5.1202     -9.1130     18.5722      1.4463
        55       -29.2022      9.9985     71.7854     17.5273
        56         0.7824     -0.3819      0.8896      0.4300
        57         0.0478     -0.0286     -3.4651     -1.1486
        58         2.5406     -0.0155     18.6980      7.0744
        59        13.7047    -34.3716      3.1154     -5.8505
        60        13.1192      0.0993     -3.9671      3.0838
        61       -23.2068     27.1368      0.4934      1.4745
        62         5.6406     16.3352     22.1230     14.6996
        63       -35.4720     -0.6309     -0.6104    -12.2378
        64       -15.2498     12.6913     12.1415      3.1943
        65        -4.2894      0.5883    -20.4437     -8.0483
        66       -91.7169      3.1554     41.7962    -15.5884
        67        11.7108      9.0371     -1.6668      6.3604
        68       -18.4759      7.9821     -1.2695     -3.9211
        69        51.5750     -4.3452     -4.5969     14.2110
        70        22.7912    -26.5026     -9.0976     -4.2697
        71         1.5704      1.2691     -2.9170     -0.0258
        72        -2.5422     -0.0742      2.0431     -0.1911
        73         5.6024      0.1010      3.3141      3.0058
        74        -0.3482     -2.5803     -1.2106     -1.3797
        75       -75.4927     13.9735     20.2049    -13.7714
        76       -46.0287     -2.1105     -0.0166    -16.0519
        77        -0.2552      7.1384     -2.6580      1.4084
        78        -5.3556      8.1455     -0.1398      0.8834
        79        48.5098      0.0594    -27.5589      7.0035
        80       120.1997     57.4429    -12.8325     54.9367
        81         4.0361     -0.4181      2.1121      1.9100
        82       -13.3482      1.6454     -1.2972     -4.3333
        83         7.2269     -1.3539     -4.6715      0.4005
        84        40.1576      1.6853     14.0937     18.6455
        85         0.3677     -5.2288     24.2137      6.4508
        86      -125.0154     -3.2855    -11.7515    -46.6841
        87        -3.2405      0.1399     -0.3038     -1.1348
        88         8.8562     -3.5089      2.6989      2.6821
        89        11.6046     10.0289      1.3063      7.6466
        90        -6.6753      1.8713     -0.1900     -1.6647
        91        18.5438     -1.8176     59.7069     25.4777
        92         9.5285     -0.6726     -1.0554      2.6002
        93        -3.2399      0.0569      5.4699      0.7623
        94        -7.9476     -2.5505     -1.2569     -3.9183
        95         7.2532      0.0023      0.0491      2.4349
        96        -1.9958     -1.6246      5.2860      0.5552
        97         0.0352      0.1230      1.8465      0.6682
        98         0.0022      6.3667      0.0411      2.1367
        99        -2.6396     -0.7944      1.6638     -0.5901
       100        -9.4636      0.1753      1.7999     -2.4961
  1/2[<0|del|b>*<b|r|0> + (<0|r|b>*<b|del|0>)*] (Au)
       state          X           Y           Z        Dip. S.   Osc.(frdel)
         1        -0.0003     -0.0077     -0.0002      0.0081      0.0054
         2         0.0001     -0.0003     -0.0000      0.0002      0.0002
         3        -0.0028     -0.0003     -0.0006      0.0036      0.0024
         4         0.0000     -0.0004     -0.0007      0.0010      0.0007
         5        -0.0000     -0.0015      0.0000      0.0015      0.0010
         6        -0.0000     -0.0180     -0.0003      0.0184      0.0123
         7        -0.0002     -0.0038     -0.0000      0.0040      0.0027
         8        -0.0002     -0.0010      0.0000      0.0012      0.0008
         9        -0.0006     -0.0029     -0.0000      0.0035      0.0023
        10        -0.0008     -0.0012     -0.0001      0.0021      0.0014
        11        -0.0020     -0.0002      0.0000      0.0021      0.0014
        12        -0.0013     -0.0004     -0.0002      0.0019      0.0013
        13        -0.0012     -0.0009     -0.0000      0.0021      0.0014
        14        -0.0785     -0.0008     -0.0002      0.0795      0.0530
        15        -0.0019     -0.0203     -0.0000      0.0222      0.0148
        16        -0.0002     -0.0139     -0.0001      0.0141      0.0094
        17        -0.0043     -0.0000      0.0000      0.0043      0.0029
        18        -0.0224     -0.0250     -0.0001      0.0475      0.0317
        19        -0.0000     -0.0081     -0.0004      0.0085      0.0057
        20        -0.0000     -0.0008     -0.0001      0.0009      0.0006
        21        -0.0146     -0.0067     -0.0003      0.0215      0.0143
        22        -0.0001     -0.0179     -0.0001      0.0181      0.0121
        23        -0.0000     -0.0048     -0.0008      0.0056      0.0037
        24        -0.0056     -0.0009     -0.0001      0.0067      0.0044
        25        -0.0002      0.0000     -0.0017      0.0019      0.0013
        26         0.0000     -0.0147     -0.0000      0.0147      0.0098
        27        -0.0013     -0.0032      0.0000      0.0045      0.0030
        28        -0.0211     -0.0000     -0.0004      0.0215      0.0144
        29        -0.0028     -0.0033     -0.0017      0.0078      0.0052
        30        -0.0420     -0.0007     -0.0002      0.0429      0.0286
        31        -0.0348     -0.0070     -0.0008      0.0426      0.0284
        32        -0.0032     -0.0004     -0.0013      0.0049      0.0032
        33        -0.0003     -0.0000     -0.0034      0.0037      0.0025
        34        -0.0292     -0.0084     -0.0001      0.0377      0.0251
        35        -0.0021     -0.0070      0.0000      0.0091      0.0061
        36        -0.0009     -0.0021     -0.0008      0.0038      0.0025
        37        -0.0000     -0.0054      0.0000      0.0054      0.0036
        38        -0.0083     -0.0024     -0.0001      0.0109      0.0072
        39        -0.0018     -0.0012     -0.0004      0.0034      0.0023
        40        -0.0015     -0.0003     -0.0000      0.0018      0.0012
        41        -0.0011     -0.0152     -0.0009      0.0171      0.0114
        42        -0.0016     -0.0001     -0.0005      0.0021      0.0014
        43        -0.0238     -0.0019     -0.0017      0.0275      0.0183
        44        -0.0000     -0.0057     -0.0007      0.0064      0.0043
        45        -0.0025     -0.0013     -0.0008      0.0046      0.0030
        46        -0.0028     -0.0006     -0.0001      0.0036      0.0024
        47        -0.0068     -0.0037     -0.0001      0.0106      0.0071
        48        -0.0053     -0.0076     -0.0015      0.0144      0.0096
        49        -0.0012     -0.0001     -0.0025      0.0037      0.0025
        50        -0.0028     -0.0022     -0.0000      0.0049      0.0033
        51        -0.0003     -0.0001     -0.0001      0.0005      0.0003
        52        -0.0020      0.0000     -0.0000      0.0020      0.0013
        53        -0.0005     -0.0039     -0.0001      0.0046      0.0030
        54         0.0001     -0.0060     -0.0005      0.0064      0.0042
        55        -0.0033     -0.0009     -0.0018      0.0060      0.0040
        56        -0.0001     -0.0002      0.0000      0.0003      0.0002
        57        -0.0000     -0.0000     -0.0002      0.0002      0.0002
        58        -0.0001     -0.0000     -0.0020      0.0021      0.0014
        59        -0.0047     -0.0139     -0.0001      0.0187      0.0125
        60        -0.0054      0.0000     -0.0002      0.0056      0.0037
        61        -0.0124     -0.0056     -0.0001      0.0181      0.0121
        62        -0.0014     -0.0023     -0.0008      0.0044      0.0030
        63        -0.0124     -0.0000     -0.0002      0.0126      0.0084
        64        -0.0023     -0.0018     -0.0003      0.0044      0.0029
        65        -0.0011      0.0000     -0.0018      0.0029      0.0020
        66        -0.0134     -0.0003     -0.0008      0.0145      0.0097
        67        -0.0291     -0.0007     -0.0007      0.0305      0.0203
        68        -0.0363     -0.0003     -0.0003      0.0369      0.0246
        69        -0.0206     -0.0194     -0.0022      0.0422      0.0281
        70        -0.0087     -0.0167     -0.0049      0.0302      0.0201
        71        -0.0001     -0.0014     -0.0020      0.0035      0.0023
        72        -0.0005     -0.0000     -0.0003      0.0008      0.0005
        73        -0.0029     -0.0000     -0.0001      0.0030      0.0020
        74        -0.0003     -0.0021     -0.0002      0.0025      0.0017
        75        -0.1149     -0.0039     -0.0003      0.1191      0.0794
        76        -0.0118     -0.0022     -0.0000      0.0140      0.0093
        77        -0.0330     -0.0016     -0.0004      0.0350      0.0233
        78        -0.0000     -0.0016     -0.0004      0.0020      0.0013
        79        -0.0502      0.0000     -0.0013      0.0515      0.0343
        80        -0.0942     -0.0189     -0.0004      0.1135      0.0757
        81        -0.0002     -0.0000     -0.0000      0.0003      0.0002
        82        -0.0088     -0.0003      0.0000      0.0091      0.0061
        83        -0.0021     -0.0001      0.0000      0.0022      0.0014
        84        -0.0184     -0.0003     -0.0003      0.0190      0.0126
        85        -0.0001     -0.0006     -0.0016      0.0022      0.0015
        86        -0.3892     -0.0002     -0.0005      0.3899      0.2599
        87        -0.0104     -0.0000     -0.0001      0.0106      0.0070
        88        -0.0082     -0.0006     -0.0003      0.0091      0.0061
        89        -0.0069     -0.0116     -0.0002      0.0188      0.0125
        90        -0.0027     -0.0007     -0.0000      0.0035      0.0023
        91        -0.0441     -0.0002     -0.0095      0.0538      0.0358
        92        -0.0076     -0.0001     -0.0016      0.0093      0.0062
        93        -0.0079     -0.0001     -0.0007      0.0086      0.0057
        94        -0.0122     -0.0010      0.0000      0.0132      0.0088
        95        -0.0077     -0.0009     -0.0000      0.0087      0.0058
        96        -0.0161     -0.0001     -0.0002      0.0163      0.0109
        97        -0.0000     -0.0020     -0.0003      0.0023      0.0015
        98        -0.0000     -0.0008     -0.0001      0.0009      0.0006
        99        -0.0219     -0.0000     -0.0002      0.0220      0.0147
       100        -0.0011     -0.0000     -0.0001      0.0012      0.0008

 Excitation energies and oscillator strengths:
 
 Excited State   1:  3.019-A      0.5518 eV 2246.95 nm  f=0.0059  <S**2>=2.028
    134A ->135A        0.99280
 This state for optimization and/or second-order correction.
 Total Energy, E(TD-HF/TD-DFT) =  -1998.90344208    
 Copying the excited state density for this state as the 1-particle RhoCI density.
 
 Excited State   2:  3.012-A      1.0499 eV 1180.90 nm  f=0.0005  <S**2>=2.018
    127B ->133B        0.20893
    129B ->133B       -0.11913
    132B ->133B        0.95648
 
 Excited State   3:  3.018-A      1.1388 eV 1088.75 nm  f=0.0019  <S**2>=2.027
    134A ->136A        0.81926
    134A ->138A        0.55148
    134A ->139A        0.10825
 
 Excited State   4:  3.014-A      1.4573 eV  850.79 nm  f=0.0011  <S**2>=2.021
    126B ->133B       -0.13852
    129B ->133B        0.37735
    130B ->133B       -0.22785
    131B ->133B        0.86486
 
 Excited State   5:  3.021-A      1.6988 eV  729.83 nm  f=0.0012  <S**2>=2.031
    134A ->136A       -0.44940
    134A ->137A        0.34536
    134A ->138A        0.52471
    134A ->139A        0.62158
 
 Excited State   6:  3.021-A      1.7540 eV  706.88 nm  f=0.0127  <S**2>=2.031
    134A ->136A       -0.34033
    134A ->137A       -0.54473
    134A ->138A        0.61043
    134A ->139A       -0.44897
 
 Excited State   7:  3.019-A      1.8101 eV  684.95 nm  f=0.0028  <S**2>=2.028
    134A ->137A        0.75924
    134A ->138A        0.18427
    134A ->139A       -0.61661
 
 Excited State   8:  3.017-A      2.4142 eV  513.56 nm  f=0.0010  <S**2>=2.026
    129B ->133B        0.18445
    130B ->133B        0.96221
    131B ->133B        0.16438
 
 Excited State   9:  3.018-A      2.4654 eV  502.89 nm  f=0.0029  <S**2>=2.027
    126B ->133B       -0.13809
    127B ->133B        0.31021
    129B ->133B        0.81253
    130B ->133B       -0.11121
    131B ->133B       -0.41719
 
 Excited State  10:  3.019-A      2.6987 eV  459.43 nm  f=0.0018  <S**2>=2.029
    127B ->133B       -0.53281
    128B ->133B        0.79029
    129B ->133B        0.17276
    132B ->133B        0.16914
 
 Excited State  11:  3.019-A      2.9482 eV  420.54 nm  f=0.0017  <S**2>=2.028
    134A ->140A        0.94366
    134A ->141A        0.26470
    134A ->142A        0.14013
 
 Excited State  12:  3.019-A      3.0454 eV  407.11 nm  f=0.0013  <S**2>=2.029
    124B ->133B       -0.10796
    126B ->133B        0.28310
    127B ->133B        0.71374
    128B ->133B        0.54036
    129B ->133B       -0.13232
    131B ->133B        0.17224
    132B ->133B       -0.12818
 
 Excited State  13:  3.018-A      3.1570 eV  392.73 nm  f=0.0015  <S**2>=2.027
    134A ->140A       -0.25671
    134A ->141A        0.95028
 
 Excited State  14:  3.161-A      3.2490 eV  381.60 nm  f=0.0554  <S**2>=2.248
    128A ->135A        0.16207
    130A ->135A        0.10607
    132A ->135A       -0.16456
    133A ->135A        0.90472
    126B ->133B        0.13667
    131B ->134B       -0.12517
 
 Excited State  15:  3.025-A      3.2783 eV  378.20 nm  f=0.0160  <S**2>=2.038
    133A ->135A       -0.14839
    121B ->133B        0.11263
    123B ->133B       -0.11890
    124B ->133B       -0.18836
    125B ->133B       -0.12638
    126B ->133B        0.83865
    127B ->133B       -0.14576
    128B ->133B       -0.21956
    129B ->133B        0.23658
    132B ->133B        0.11951
    132B ->134B       -0.10340
 
 Excited State  16:  3.024-A      3.3367 eV  371.58 nm  f=0.0100  <S**2>=2.036
    134A ->140A       -0.13657
    134A ->142A        0.95066
    134A ->143A        0.19026
    134A ->148A       -0.10107
 
 Excited State  17:  4.040-A      3.4006 eV  364.60 nm  f=0.0029  <S**2>=3.830
    128A ->135A        0.13097
    132A ->135A       -0.61797
    127B ->134B        0.13546
    132B ->134B        0.70022
 
 Excited State  18:  3.036-A      3.4799 eV  356.29 nm  f=0.0333  <S**2>=2.055
    123B ->133B       -0.32990
    124B ->133B        0.41330
    125B ->133B        0.77206
    126B ->133B        0.18804
    129B ->133B        0.11110
 
 Excited State  19:  3.030-A      3.5295 eV  351.28 nm  f=0.0054  <S**2>=2.045
    134A ->143A       -0.45763
    134A ->144A        0.84181
 
 Excited State  20:  3.023-A      3.6390 eV  340.71 nm  f=0.0005  <S**2>=2.034
    134A ->142A       -0.17540
    134A ->143A        0.83486
    134A ->144A        0.43242
    134A ->146A        0.16301
    134A ->147A        0.17835
 
 Excited State  21:  3.645-A      3.6926 eV  335.76 nm  f=0.0149  <S**2>=3.071
    127A ->135A       -0.13938
    130A ->135A        0.34714
    131A ->135A        0.27065
    132A ->135A       -0.28168
    134A ->145A       -0.14624
    120B ->133B       -0.15618
    122B ->133B        0.42230
    123B ->133B        0.21933
    125B ->133B        0.19261
    129B ->134B        0.20466
    130B ->134B       -0.11604
    131B ->134B        0.44750
    132B ->134B       -0.20537
 
 Excited State  22:  3.177-A      3.7118 eV  334.03 nm  f=0.0126  <S**2>=2.273
    130A ->135A        0.12564
    131A ->135A        0.11598
    134A ->144A        0.17767
    134A ->145A        0.79659
    134A ->146A       -0.26553
    134A ->147A       -0.17041
    134A ->152A       -0.16597
    130B ->138B        0.13883
    131B ->134B        0.18545
 
 Excited State  23:  3.333-A      3.7600 eV  329.75 nm  f=0.0039  <S**2>=2.528
    130A ->135A       -0.22560
    131A ->135A       -0.19299
    134A ->145A        0.18609
    120B ->133B       -0.10729
    122B ->133B        0.64756
    123B ->133B        0.36759
    125B ->133B        0.22191
    129B ->134B       -0.15316
    131B ->134B       -0.33872
 
 Excited State  24:  3.085-A      3.8296 eV  323.75 nm  f=0.0052  <S**2>=2.130
    130A ->135A        0.12219
    131A ->135A        0.13025
    132A ->135A        0.63891
    133A ->135A        0.18705
    122B ->133B        0.10679
    131B ->134B        0.27878
    132B ->134B        0.58872
 
 Excited State  25:  3.022-A      3.8419 eV  322.72 nm  f=0.0019  <S**2>=2.033
    134A ->145A        0.15745
    134A ->146A        0.64104
    134A ->147A       -0.49724
    134A ->148A       -0.32703
    134A ->149A       -0.17926
    134A ->150A       -0.35630
    134A ->153A       -0.10214
 
 Excited State  26:  3.080-A      3.9012 eV  317.81 nm  f=0.0109  <S**2>=2.122
    134A ->143A       -0.16390
    134A ->144A       -0.16753
    134A ->145A        0.45932
    134A ->146A        0.38308
    134A ->147A        0.65430
    134A ->149A       -0.12948
    134A ->152A        0.12685
    134A ->159A        0.12353
    130B ->138B       -0.13891
 
 Excited State  27:  3.079-A      3.9952 eV  310.33 nm  f=0.0031  <S**2>=2.119
    134A ->146A        0.48454
    134A ->148A        0.57281
    134A ->149A        0.50767
    134A ->150A        0.16198
    120B ->133B        0.12958
    130B ->138B        0.11366
    131B ->134B        0.10994
 
 Excited State  28:  3.061-A      4.0341 eV  307.34 nm  f=0.0135  <S**2>=2.093
    130A ->135A       -0.18717
    131A ->135A       -0.14693
    134A ->146A       -0.12432
    134A ->148A       -0.11104
    134A ->149A       -0.16425
    108B ->133B       -0.10448
    111B ->133B       -0.12378
    112B ->133B        0.20719
    117B ->133B        0.33289
    119B ->133B        0.23039
    120B ->133B        0.54758
    121B ->133B       -0.38016
    122B ->133B        0.10324
    129B ->134B        0.15161
    131B ->134B        0.25005
 
 Excited State  29:  3.030-A      4.0702 eV  304.61 nm  f=0.0050  <S**2>=2.046
    123B ->133B        0.18641
    124B ->133B        0.84445
    125B ->133B       -0.41484
    126B ->133B        0.18272
 
 Excited State  30:  3.516-A      4.1237 eV  300.66 nm  f=0.0305  <S**2>=2.840
    130A ->135A       -0.33712
    130A ->138A       -0.12574
    131A ->135A       -0.22130
    131A ->136A        0.23751
    131A ->138A        0.16212
    133A ->135A        0.10548
    134A ->147A        0.13189
    134A ->148A       -0.11431
    117B ->133B       -0.12121
    120B ->133B       -0.18498
    121B ->133B        0.18037
    130B ->136B        0.22256
    130B ->138B        0.28081
    131B ->134B        0.32122
    131B ->135B       -0.12777
    131B ->138B        0.14601
    132B ->135B        0.36450
    132B ->139B       -0.14240
 
 Excited State  31:  3.345-A      4.1472 eV  298.96 nm  f=0.0285  <S**2>=2.547
    130A ->135A        0.14194
    131A ->135A        0.14839
    132A ->136A        0.15213
    132A ->137A        0.13488
    132A ->138A       -0.13874
    134A ->149A       -0.14667
    120B ->133B        0.11095
    122B ->133B       -0.34909
    123B ->133B        0.61114
    125B ->133B        0.20866
    126B ->133B        0.16944
    131B ->134B       -0.17682
    132B ->135B        0.14249
    132B ->136B       -0.27799
    132B ->138B        0.16109
 
 Excited State  32:  3.345-A      4.1726 eV  297.14 nm  f=0.0036  <S**2>=2.547
    130A ->136A        0.11440
    132A ->136A        0.16491
    132A ->138A       -0.10249
    134A ->148A       -0.40596
    134A ->149A        0.64658
    134A ->150A       -0.19601
    134A ->151A        0.14924
    122B ->133B        0.11444
    132B ->136B       -0.32935
    132B ->138B        0.15427
 
 Excited State  33:  3.405-A      4.1751 eV  296.96 nm  f=0.0025  <S**2>=2.648
    130A ->135A       -0.15193
    131A ->135A       -0.15791
    132A ->136A       -0.15664
    132A ->137A       -0.16483
    132A ->138A        0.16292
    134A ->148A       -0.21641
    134A ->149A        0.32257
    122B ->133B       -0.34864
    123B ->133B        0.46929
    125B ->133B        0.14729
    126B ->133B        0.11515
    131B ->134B        0.19280
    132B ->135B       -0.19386
    132B ->136B        0.30525
    132B ->138B       -0.17711
 
 Excited State  34:  3.530-A      4.1890 eV  295.97 nm  f=0.0264  <S**2>=2.865
    128A ->135A       -0.12071
    130A ->135A        0.23957
    130A ->136A       -0.17797
    131A ->135A        0.35077
    131A ->136A        0.16138
    131A ->138A        0.21685
    132A ->136A       -0.10858
    134A ->147A        0.31526
    134A ->148A       -0.21028
    134A ->149A        0.11898
    134A ->150A       -0.11889
    120B ->133B        0.13117
    130B ->134B        0.15334
    130B ->136B        0.22501
    130B ->138B        0.29693
    131B ->134B       -0.25986
    131B ->138B        0.14167
    132B ->136B        0.17054
 
 Excited State  35:  3.868-A      4.2626 eV  290.87 nm  f=0.0064  <S**2>=3.490
    131A ->136A        0.14506
    132A ->136A        0.12179
    132A ->137A       -0.10210
    132A ->139A       -0.40262
    133A ->139A       -0.20320
    134A ->146A        0.13379
    134A ->149A       -0.18780
    134A ->150A        0.23540
    127B ->139B        0.10145
    132B ->135B       -0.35940
    132B ->136B       -0.27907
    132B ->139B        0.48918
 
 Excited State  36:  3.070-A      4.2851 eV  289.34 nm  f=0.0029  <S**2>=2.107
    134A ->147A       -0.22312
    134A ->148A       -0.39034
    134A ->150A        0.79949
    134A ->151A        0.11067
    134A ->154A       -0.16966
    132B ->135B        0.17876
    132B ->139B       -0.12811
 
 Excited State  37:  3.200-A      4.4040 eV  281.53 nm  f=0.0039  <S**2>=2.310
    131A ->135A        0.10939
    132A ->139A       -0.10767
    133A ->137A       -0.22457
    133A ->138A        0.19009
    133A ->139A       -0.32183
    134A ->143A        0.10229
    134A ->145A        0.11678
    134A ->146A       -0.11332
    134A ->147A       -0.20123
    134A ->148A        0.13756
    134A ->150A       -0.13986
    134A ->151A        0.10951
    134A ->152A        0.43437
    134A ->153A        0.20536
    134A ->157A       -0.11775
    134A ->159A        0.13439
    131B ->135B       -0.27463
    132B ->135B        0.30235
    132B ->137B        0.23201
 
 Excited State  38:  3.363-A      4.4481 eV  278.73 nm  f=0.0067  <S**2>=2.578
    128A ->139A       -0.10093
    132A ->138A       -0.14116
    132A ->139A        0.26901
    133A ->137A       -0.25613
    133A ->138A        0.23981
    133A ->139A       -0.38083
    134A ->147A        0.10954
    134A ->152A       -0.32215
    134A ->153A       -0.17645
    121B ->133B        0.10055
    129B ->134B        0.11388
    131B ->135B        0.14200
    132B ->136B       -0.16833
    132B ->137B        0.44848
    132B ->139B       -0.17280
 
 Excited State  39:  3.222-A      4.4525 eV  278.46 nm  f=0.0025  <S**2>=2.345
    132A ->137A        0.17393
    133A ->139A       -0.14916
    134A ->148A        0.11833
    134A ->149A       -0.13374
    134A ->151A        0.81220
    134A ->155A        0.12678
    131B ->135B        0.12357
    132B ->136B        0.10922
    132B ->137B       -0.31480
 
 Excited State  40:  3.595-A      4.4675 eV  277.52 nm  f=0.0010  <S**2>=2.980
    132A ->137A       -0.27414
    133A ->138A       -0.20454
    133A ->139A        0.40641
    134A ->151A        0.43679
    127B ->137B        0.11740
    132B ->136B       -0.18120
    132B ->137B        0.54559
 
 Excited State  41:  3.085-A      4.5248 eV  274.01 nm  f=0.0121  <S**2>=2.129
    132A ->139A        0.15927
    134A ->146A        0.10194
    134A ->148A       -0.18043
    134A ->152A        0.12759
    134A ->153A        0.74256
    134A ->154A        0.29166
    134A ->155A        0.23905
    134A ->156A       -0.11665
    134A ->157A       -0.19347
    131B ->135B        0.21814
    132B ->135B       -0.13750
 
 Excited State  42:  3.041-A      4.5371 eV  273.27 nm  f=0.0014  <S**2>=2.062
    134A ->153A        0.10375
    120B ->133B        0.52992
    121B ->133B        0.78352
 
 Excited State  43:  3.303-A      4.6406 eV  267.17 nm  f=0.0190  <S**2>=2.478
    130A ->135A       -0.38396
    130A ->139A       -0.13689
    131A ->135A        0.37402
    134A ->152A        0.24639
    134A ->153A       -0.13945
    120B ->133B       -0.10374
    129B ->139B       -0.10761
    130B ->134B       -0.23566
    130B ->135B        0.35319
    130B ->139B        0.10059
    131B ->135B        0.45181
    131B ->139B       -0.16799
 
 Excited State  44:  3.126-A      4.6458 eV  266.87 nm  f=0.0066  <S**2>=2.193
    132A ->137A        0.20889
    132A ->138A       -0.17025
    132A ->139A        0.42262
    133A ->137A        0.14410
    134A ->152A        0.36610
    134A ->153A       -0.12724
    134A ->154A       -0.11996
    111B ->133B       -0.10900
    117B ->133B        0.17983
    120B ->133B       -0.18610
    121B ->133B        0.10568
    130B ->134B        0.22541
    130B ->135B       -0.13363
    131B ->135B       -0.21610
    132B ->135B       -0.33715
    132B ->139B        0.20561
 
 Excited State  45:  3.076-A      4.6572 eV  266.22 nm  f=0.0032  <S**2>=2.115
    132A ->137A       -0.18343
    132A ->139A       -0.16935
    133A ->139A        0.13623
    134A ->152A       -0.27717
    134A ->153A        0.12221
    106B ->133B        0.10355
    107B ->133B        0.10470
    108B ->133B       -0.20552
    111B ->133B       -0.23700
    112B ->133B        0.15302
    113B ->133B        0.10040
    117B ->133B        0.41557
    119B ->133B        0.25419
    120B ->133B       -0.41099
    121B ->133B        0.30242
    122B ->133B       -0.14701
    132B ->135B        0.11535
 
 Excited State  46:  3.348-A      4.6730 eV  265.32 nm  f=0.0022  <S**2>=2.553
    130A ->135A       -0.21783
    130A ->139A        0.10431
    131A ->135A        0.26601
    131A ->139A        0.11438
    132A ->139A        0.12862
    133A ->136A        0.59277
    133A ->137A       -0.20873
    133A ->138A       -0.30740
    133A ->139A       -0.19608
    129B ->139B        0.11284
    130B ->134B       -0.12213
    130B ->135B        0.22949
    131B ->135B       -0.16363
    131B ->137B        0.10473
    131B ->139B        0.22662
    132B ->135B       -0.12034
 
 Excited State  47:  3.759-A      4.6858 eV  264.59 nm  f=0.0068  <S**2>=3.283
    128A ->135A       -0.31350
    129A ->135A       -0.22707
    130A ->139A       -0.10355
    133A ->136A        0.30282
    133A ->138A       -0.18124
    117B ->133B       -0.11254
    127B ->134B        0.11952
    128B ->134B        0.17140
    129B ->134B        0.48719
    130B ->134B        0.44230
    130B ->135B       -0.13458
    131B ->135B        0.12044
    131B ->139B       -0.13520
 
 Excited State  48:  3.241-A      4.7056 eV  263.48 nm  f=0.0095  <S**2>=2.376
    128A ->135A       -0.11477
    130A ->135A       -0.20922
    131A ->135A        0.18055
    133A ->136A       -0.23919
    133A ->138A        0.12491
    133A ->139A        0.10757
    134A ->151A       -0.11299
    134A ->152A       -0.20905
    134A ->153A        0.11695
    134A ->154A       -0.35572
    134A ->155A        0.60286
    134A ->156A        0.25806
    134A ->157A        0.10008
    129B ->134B        0.10192
    130B ->134B        0.14058
    131B ->135B       -0.10529
 
 Excited State  49:  3.338-A      4.7116 eV  263.15 nm  f=0.0019  <S**2>=2.535
    128A ->135A        0.12919
    130A ->135A        0.24579
    130A ->139A       -0.11675
    131A ->135A       -0.17835
    131A ->139A       -0.12311
    133A ->136A        0.26439
    133A ->137A       -0.20589
    133A ->138A       -0.11553
    133A ->139A       -0.11626
    134A ->151A       -0.14751
    134A ->152A        0.23157
    134A ->153A       -0.19737
    134A ->155A        0.50955
    134A ->156A        0.15970
    134A ->157A        0.15646
    134A ->159A       -0.14014
    129B ->134B       -0.15056
    130B ->135B       -0.17122
    131B ->135B        0.22764
    131B ->139B       -0.13991
    132B ->135B        0.10051
 
 Excited State  50:  3.681-A      4.7348 eV  261.86 nm  f=0.0029  <S**2>=3.137
    128A ->135A        0.11310
    129A ->135A        0.10809
    130A ->135A       -0.20289
    131A ->135A        0.28650
    132A ->137A       -0.13706
    132A ->139A       -0.15232
    133A ->136A       -0.12957
    133A ->137A       -0.11747
    134A ->152A        0.25349
    134A ->153A       -0.11670
    134A ->154A        0.32781
    134A ->159A       -0.11313
    129B ->134B       -0.16933
    129B ->137B        0.12480
    130B ->134B        0.48788
    131B ->134B        0.18623
    131B ->136B       -0.15857
    131B ->137B        0.17888
    131B ->139B        0.10296
    132B ->138B        0.11287
    132B ->139B       -0.16375
 
 Excited State  51:  3.660-A      4.7445 eV  261.32 nm  f=0.0003  <S**2>=3.098
    128A ->135A        0.18150
    129A ->135A        0.16654
    130A ->137A       -0.12304
    130A ->139A       -0.13240
    131A ->135A        0.17260
    131A ->139A       -0.10407
    132A ->137A        0.11261
    133A ->136A        0.15211
    133A ->139A       -0.12231
    134A ->152A       -0.25789
    134A ->153A        0.19476
    134A ->154A       -0.29229
    134A ->155A       -0.11428
    134A ->159A        0.10338
    129B ->134B       -0.28563
    129B ->137B       -0.13125
    130B ->134B        0.43545
    131B ->134B        0.21063
    131B ->135B        0.12339
    131B ->137B       -0.22507
    131B ->139B       -0.16826
    132B ->135B        0.10247
    132B ->136B        0.10764
 
 Excited State  52:  3.761-A      4.7509 eV  260.97 nm  f=0.0014  <S**2>=3.285
    128A ->137A       -0.10324
    130A ->136A       -0.16401
    130A ->137A        0.15422
    130A ->138A        0.10159
    131A ->137A        0.14423
    131A ->138A        0.12178
    132A ->139A        0.13451
    133A ->137A       -0.15936
    133A ->139A        0.10830
    134A ->152A       -0.12519
    134A ->153A        0.12688
    134A ->154A       -0.27555
    134A ->155A       -0.13633
    129B ->136B       -0.19052
    129B ->137B        0.24204
    130B ->136B        0.12360
    131B ->136B       -0.37876
    131B ->137B        0.40846
    131B ->138B        0.10482
    132B ->136B       -0.24810
    132B ->139B        0.18826
 
 Excited State  53:  3.232-A      4.7911 eV  258.78 nm  f=0.0030  <S**2>=2.362
    130A ->137A        0.10949
    131A ->137A        0.10781
    132A ->136A       -0.23128
    132A ->137A        0.13180
    132A ->138A        0.16211
    133A ->137A        0.63361
    133A ->139A       -0.29321
    134A ->154A        0.22945
    134A ->155A        0.11727
    129B ->136B       -0.11613
    131B ->136B       -0.28876
    131B ->138B        0.10388
    132B ->136B       -0.13979
    132B ->137B        0.24046
 
 Excited State  54:  3.118-A      4.8094 eV  257.79 nm  f=0.0037  <S**2>=2.181
    130A ->135A       -0.10180
    132A ->137A        0.13849
    132A ->139A        0.11371
    133A ->137A       -0.24290
    133A ->139A        0.17321
    134A ->150A        0.12268
    134A ->152A       -0.21958
    134A ->153A       -0.11079
    134A ->154A        0.55962
    134A ->155A        0.17838
    134A ->156A        0.36625
    134A ->159A        0.23904
    129B ->135B        0.10673
    131B ->135B       -0.11492
    131B ->139B       -0.13212
    132B ->139B        0.24540
 
 Excited State  55:  3.108-A      4.8399 eV  256.17 nm  f=0.0045  <S**2>=2.165
    130A ->135A        0.27453
    131A ->135A       -0.31688
    132A ->136A       -0.11099
    134A ->155A        0.10047
    130B ->134B        0.34766
    130B ->135B        0.65824
    130B ->138B       -0.10618
    131B ->135B        0.19997
    131B ->136B        0.14254
    131B ->139B        0.12091
    132B ->138B       -0.17464
 
 Excited State  56:  3.243-A      4.8750 eV  254.32 nm  f=0.0003  <S**2>=2.379
    132A ->136A       -0.23175
    132A ->137A        0.45320
    132A ->138A        0.19007
    132A ->139A       -0.19233
    133A ->137A       -0.35386
    133A ->139A        0.22216
    134A ->155A        0.13589
    134A ->156A       -0.35321
    129B ->137B       -0.15820
    131B ->136B       -0.22870
    131B ->137B       -0.26509
    131B ->138B        0.10613
    131B ->139B        0.11197
    132B ->136B       -0.10449
    132B ->137B        0.15555
 
 Excited State  57:  3.080-A      4.8899 eV  253.55 nm  f=0.0002  <S**2>=2.121
    132A ->136A       -0.12314
    132A ->137A        0.15614
    132A ->138A        0.10772
    132A ->139A       -0.11158
    133A ->137A       -0.10941
    134A ->153A        0.29503
    134A ->155A       -0.30844
    134A ->156A        0.57095
    134A ->157A        0.44366
    134A ->158A        0.24038
    134A ->159A       -0.15821
    134A ->160A       -0.12087
 
 Excited State  58:  3.039-A      4.9175 eV  252.13 nm  f=0.0013  <S**2>=2.058
    111B ->133B        0.12999
    117B ->133B       -0.36704
    118B ->133B       -0.15100
    119B ->133B        0.85277
 
 Excited State  59:  3.059-A      4.9535 eV  250.30 nm  f=0.0122  <S**2>=2.089
    131A ->136A       -0.10806
    134A ->153A        0.15029
    134A ->155A        0.11448
    134A ->156A       -0.46278
    134A ->157A        0.70484
    118B ->133B        0.24361
    132B ->135B        0.13546
    132B ->139B        0.16325
 
 Excited State  60:  3.095-A      4.9616 eV  249.89 nm  f=0.0036  <S**2>=2.144
    129A ->135A        0.10918
    134A ->156A        0.13020
    134A ->157A       -0.16225
    118B ->133B        0.85844
    119B ->133B        0.18876
    129B ->134B        0.10730
    131B ->136B       -0.14315
    131B ->137B       -0.10387
 
 Excited State  61:  3.816-A      4.9802 eV  248.95 nm  f=0.0118  <S**2>=3.391
    126A ->135A       -0.10974
    127A ->135A        0.10469
    128A ->135A       -0.25032
    129A ->135A        0.65316
    132A ->135A       -0.14684
    132A ->136A       -0.23543
    132A ->137A        0.10934
    132A ->138A        0.18652
    127B ->134B       -0.14172
    128B ->134B        0.28504
    129B ->134B        0.13716
    130B ->135B       -0.10723
    131B ->136B        0.18033
    131B ->137B        0.18501
    131B ->138B       -0.10528
    131B ->139B       -0.10470
 
 Excited State  62:  3.519-A      4.9904 eV  248.44 nm  f=0.0027  <S**2>=2.846
    129A ->135A        0.37460
    130A ->135A        0.11460
    130A ->139A        0.11505
    131A ->139A        0.11760
    132A ->136A        0.28609
    132A ->137A       -0.22005
    132A ->138A       -0.23166
    117B ->133B       -0.22006
    118B ->133B       -0.32245
    129B ->134B        0.17249
    129B ->137B       -0.10165
    130B ->136B        0.10656
    131B ->136B       -0.31291
    131B ->137B       -0.25566
    132B ->136B        0.20562
    132B ->138B        0.11779
    132B ->139B        0.10929
 
 Excited State  63:  3.442-A      5.0266 eV  246.66 nm  f=0.0087  <S**2>=2.711
    128A ->135A       -0.27766
    129A ->135A        0.10202
    132A ->136A        0.23037
    132A ->137A       -0.11868
    132A ->138A       -0.11192
    106B ->133B       -0.12603
    107B ->133B       -0.13619
    108B ->133B        0.28013
    111B ->133B        0.25982
    113B ->133B       -0.12665
    116B ->133B        0.10102
    117B ->133B        0.33920
    119B ->133B        0.10778
    128B ->134B        0.27650
    129B ->134B       -0.22309
    131B ->134B        0.11941
    131B ->136B       -0.14217
    131B ->137B       -0.15018
    131B ->138B        0.19177
    132B ->135B       -0.15226
    132B ->138B       -0.14477
    132B ->139B       -0.19434
 
 Excited State  64:  3.271-A      5.0401 eV  245.99 nm  f=0.0024  <S**2>=2.424
    128A ->135A        0.19027
    130A ->137A        0.14538
    130A ->138A       -0.10438
    130A ->139A        0.17846
    131A ->137A        0.13084
    131A ->139A        0.15944
    106B ->133B       -0.11046
    107B ->133B       -0.12084
    108B ->133B        0.24337
    111B ->133B        0.22425
    113B ->133B       -0.12857
    117B ->133B        0.44259
    128B ->134B       -0.19309
    129B ->134B        0.13896
    130B ->135B       -0.14427
    131B ->135B        0.20039
    131B ->138B       -0.13199
    132B ->135B        0.25787
    132B ->136B        0.19472
    132B ->138B        0.12129
    132B ->139B        0.28705
 
 Excited State  65:  3.109-A      5.0662 eV  244.73 nm  f=0.0015  <S**2>=2.166
    128A ->135A       -0.10489
    134A ->154A       -0.17239
    134A ->155A        0.13946
    134A ->156A       -0.10126
    134A ->157A       -0.26700
    134A ->158A        0.72448
    134A ->160A       -0.44701
    131B ->138B       -0.11083
    132B ->136B        0.10086
    132B ->138B        0.15646
 
 Excited State  66:  3.688-A      5.0865 eV  243.75 nm  f=0.0097  <S**2>=3.151
    130A ->136A       -0.14129
    130A ->139A       -0.25479
    131A ->135A       -0.10142
    131A ->139A       -0.17557
    132A ->136A       -0.12367
    132A ->138A       -0.11985
    133A ->136A       -0.10709
    133A ->138A       -0.12423
    134A ->158A       -0.17999
    129B ->136B        0.12607
    130B ->135B        0.27572
    131B ->135B       -0.19341
    131B ->138B       -0.28719
    131B ->139B       -0.10317
    132B ->135B       -0.21956
    132B ->136B        0.18867
    132B ->137B        0.11022
    132B ->138B        0.49607
    132B ->139B       -0.20335
 
 Excited State  67:  3.131-A      5.1078 eV  242.74 nm  f=0.0196  <S**2>=2.201
    128A ->135A       -0.16212
    133A ->136A        0.10019
    134A ->158A       -0.10886
    134A ->159A       -0.24389
    134A ->160A        0.12907
    116B ->133B        0.73197
    117B ->133B       -0.18400
    128B ->134B        0.17791
    129B ->134B       -0.19305
    131B ->134B        0.10183
    131B ->139B        0.10288
    132B ->135B        0.15333
    132B ->136B        0.12327
    132B ->139B        0.15373
 
 Excited State  68:  3.158-A      5.1132 eV  242.48 nm  f=0.0238  <S**2>=2.243
    128A ->135A        0.21361
    129A ->135A        0.10478
    131A ->136A        0.12380
    132A ->137A       -0.11076
    133A ->136A       -0.15556
    133A ->138A       -0.12375
    134A ->158A        0.10478
    134A ->159A        0.32473
    134A ->160A       -0.14181
    116B ->133B        0.63033
    128B ->134B       -0.17825
    129B ->134B        0.22386
    131B ->134B       -0.11761
    131B ->139B       -0.11374
    132B ->135B       -0.17793
    132B ->136B       -0.14202
    132B ->137B       -0.10186
    132B ->139B       -0.17181
 
 Excited State  69:  3.276-A      5.1423 eV  241.11 nm  f=0.0288  <S**2>=2.433
    128A ->135A       -0.10937
    129A ->135A       -0.25726
    130A ->138A       -0.22301
    130A ->139A        0.13944
    131A ->136A        0.19183
    131A ->139A        0.15131
    132A ->136A       -0.25444
    132A ->137A       -0.16885
    133A ->136A       -0.15681
    133A ->138A       -0.17254
    133A ->139A       -0.16653
    134A ->159A        0.35971
    128B ->134B        0.31472
    129B ->134B       -0.26826
    130B ->135B       -0.14048
    131B ->135B        0.30401
    131B ->136B       -0.12389
    132B ->138B        0.21229
 
 Excited State  70:  3.172-A      5.1754 eV  239.56 nm  f=0.0202  <S**2>=2.266
    128A ->137A       -0.10938
    130A ->136A       -0.10961
    130A ->137A        0.27572
    131A ->137A        0.26738
    132A ->136A        0.17406
    132A ->137A        0.22652
    132A ->139A       -0.28780
    133A ->136A        0.27544
    133A ->138A        0.26843
    133A ->139A        0.14133
    134A ->159A        0.44148
    131B ->135B        0.13906
    131B ->136B        0.18574
    132B ->135B       -0.17559
    132B ->136B        0.13565
    132B ->137B        0.15899
    132B ->139B       -0.20875
 
 Excited State  71:  3.265-A      5.1839 eV  239.17 nm  f=0.0026  <S**2>=2.415
    130A ->137A       -0.17019
    130A ->138A       -0.11566
    131A ->137A       -0.16085
    132A ->136A       -0.22740
    132A ->137A       -0.17415
    132A ->139A        0.14390
    133A ->136A        0.37555
    133A ->138A        0.69291
    133A ->139A        0.17767
    131B ->136B       -0.14734
    132B ->137B       -0.11056
    132B ->138B        0.15729
 
 Excited State  72:  3.025-A      5.2293 eV  237.10 nm  f=0.0006  <S**2>=2.037
    115B ->133B        0.97004
 
 Excited State  73:  3.027-A      5.2554 eV  235.92 nm  f=0.0018  <S**2>=2.040
    134A ->158A        0.50865
    134A ->159A        0.23275
    134A ->160A        0.79742
 
 Excited State  74:  3.022-A      5.2795 eV  234.84 nm  f=0.0016  <S**2>=2.033
    113B ->133B       -0.23908
    114B ->133B        0.95710
 
 Excited State  75:  3.167-A      5.3251 eV  232.83 nm  f=0.0772  <S**2>=2.257
    124A ->135A        0.10564
    126A ->135A       -0.12842
    127A ->135A        0.17188
    128A ->135A        0.33182
    129A ->135A       -0.21367
    130A ->136A        0.11315
    130A ->137A        0.18006
    130A ->139A        0.13598
    131A ->137A        0.16177
    131A ->139A        0.10771
    132A ->138A        0.10673
    134A ->159A       -0.30168
    134A ->161A       -0.19764
    134A ->164A       -0.12583
    128B ->134B        0.41202
    129B ->135B        0.14914
    129B ->139B       -0.11674
    131B ->135B       -0.18488
    131B ->139B       -0.35456
 
 Excited State  76:  3.269-A      5.3487 eV  231.80 nm  f=0.0089  <S**2>=2.422
    130A ->136A        0.34251
    130A ->137A        0.29110
    130A ->138A       -0.13387
    130A ->139A       -0.33097
    131A ->136A        0.34094
    131A ->137A        0.28199
    131A ->138A       -0.14871
    131A ->139A       -0.31106
    113B ->133B       -0.31237
    114B ->133B       -0.10819
    131B ->136B       -0.20355
    131B ->137B       -0.11956
    131B ->139B        0.11393
    132B ->136B        0.11296
 
 Excited State  77:  3.125-A      5.3571 eV  231.44 nm  f=0.0237  <S**2>=2.192
    130A ->136A        0.12713
    130A ->137A        0.13665
    131A ->136A        0.11176
    131A ->137A        0.12987
    131A ->138A       -0.10333
    108B ->133B        0.14091
    111B ->133B        0.17844
    113B ->133B        0.77870
    114B ->133B        0.19967
    127B ->134B        0.28192
 
 Excited State  78:  3.107-A      5.3715 eV  230.82 nm  f=0.0015  <S**2>=2.163
    127A ->135A       -0.11487
    134A ->161A        0.81817
    134A ->162A       -0.27024
    134A ->164A        0.21003
    127B ->134B       -0.19663
    131B ->139B       -0.16032
 
 Excited State  79:  3.707-A      5.3805 eV  230.43 nm  f=0.0363  <S**2>=3.185
    124A ->135A        0.12837
    125A ->135A       -0.10049
    126A ->135A       -0.10191
    127A ->135A        0.50914
    128A ->135A        0.22928
    130A ->135A        0.12576
    130A ->139A       -0.12662
    131A ->135A        0.10142
    131A ->139A       -0.10413
    134A ->159A        0.11514
    134A ->161A        0.29349
    134A ->164A        0.15130
    126B ->134B        0.20026
    127B ->134B        0.41553
    128B ->134B        0.19519
    129B ->135B       -0.14752
    131B ->139B        0.20485
 
 Excited State  80:  3.197-A      5.3877 eV  230.12 nm  f=0.0783  <S**2>=2.305
    128A ->135A       -0.27341
    129A ->135A        0.10012
    130A ->139A        0.15680
    131A ->139A        0.13919
    132A ->139A       -0.11230
    134A ->159A       -0.12044
    112B ->133B        0.24900
    113B ->133B       -0.33090
    127B ->134B        0.56312
    128B ->134B       -0.21105
    129B ->134B       -0.18862
    129B ->135B        0.16402
    131B ->139B       -0.21674
    132B ->134B       -0.10118
    132B ->139B       -0.12071
 
 Excited State  81:  3.429-A      5.4415 eV  227.85 nm  f=0.0003  <S**2>=2.690
    130A ->136A        0.13640
    132A ->136A        0.14316
    132A ->138A        0.23511
    132A ->139A        0.12586
    112B ->133B       -0.18682
    129B ->136B       -0.14573
    130B ->136B       -0.18825
    130B ->138B       -0.18244
    131B ->136B        0.19593
    131B ->137B        0.13800
    131B ->138B        0.55143
    132B ->136B        0.20644
    132B ->137B        0.10609
    132B ->138B        0.52508
 
 Excited State  82:  3.103-A      5.4593 eV  227.10 nm  f=0.0057  <S**2>=2.157
    127A ->135A        0.13353
    108B ->133B        0.11478
    110B ->133B        0.11734
    111B ->133B        0.21482
    112B ->133B        0.82602
    117B ->133B       -0.11502
    127B ->134B       -0.25777
    128B ->134B       -0.10320
    131B ->138B        0.14494
 
 Excited State  83:  3.129-A      5.4937 eV  225.68 nm  f=0.0014  <S**2>=2.198
    127A ->135A        0.11331
    132A ->136A       -0.17473
    132A ->138A       -0.21141
    134A ->157A       -0.10682
    134A ->162A       -0.23973
    134A ->163A        0.49038
    134A ->164A       -0.29312
    134A ->165A       -0.44699
    134A ->166A        0.22991
    134A ->167A        0.24756
    134A ->168A        0.27649
    112B ->133B       -0.11451
 
 Excited State  84:  3.391-A      5.5064 eV  225.16 nm  f=0.0128  <S**2>=2.625
    127A ->135A       -0.23113
    128A ->135A        0.10057
    130A ->137A       -0.11135
    131A ->136A        0.13700
    131A ->137A       -0.10500
    132A ->136A        0.33231
    132A ->137A        0.12253
    132A ->138A        0.37745
    132A ->139A        0.12484
    134A ->162A       -0.36669
    134A ->164A       -0.26301
    134A ->165A       -0.16365
    134A ->166A        0.11508
    112B ->133B        0.18479
    127B ->134B        0.11032
    128B ->134B        0.16893
    129B ->136B        0.17006
    131B ->136B       -0.20921
    131B ->137B        0.17136
    131B ->138B       -0.18905
 
 Excited State  85:  3.193-A      5.5132 eV  224.88 nm  f=0.0015  <S**2>=2.299
    126A ->135A        0.10281
    127A ->135A       -0.17674
    130A ->136A        0.11614
    131A ->136A       -0.12185
    131A ->138A       -0.12345
    132A ->136A        0.16572
    132A ->138A        0.27672
    132A ->139A        0.10285
    134A ->159A        0.17722
    134A ->162A        0.54638
    134A ->163A        0.32769
    134A ->164A        0.26104
    134A ->165A       -0.18506
    134A ->167A        0.11782
    134A ->168A        0.24723
    131B ->135B       -0.11229
    131B ->139B       -0.18767
 
 Excited State  86:  3.556-A      5.5621 eV  222.91 nm  f=0.2576  <S**2>=2.912
    124A ->135A        0.12523
    126A ->135A       -0.26953
    127A ->135A        0.35108
    128A ->135A       -0.26017
    129A ->135A       -0.12332
    132A ->136A        0.29408
    132A ->138A        0.41599
    132A ->139A        0.11322
    134A ->164A       -0.17363
    112B ->133B       -0.16579
    125B ->134B        0.11247
    126B ->134B        0.10689
    127B ->134B       -0.23240
    128B ->134B       -0.35322
    131B ->138B       -0.15761
 
 Excited State  87:  3.047-A      5.5723 eV  222.50 nm  f=0.0068  <S**2>=2.071
    134A ->161A       -0.32181
    134A ->162A       -0.47408
    134A ->163A        0.32516
    134A ->164A        0.66706
    134A ->165A        0.17288
    134A ->167A        0.10062
 
 Excited State  88:  3.246-A      5.5856 eV  221.97 nm  f=0.0064  <S**2>=2.385
    131A ->136A       -0.12931
    132A ->138A        0.11897
    134A ->161A       -0.17153
    134A ->162A       -0.21644
    134A ->163A       -0.36522
    134A ->164A        0.15203
    134A ->165A       -0.39095
    134A ->166A        0.26319
    134A ->167A       -0.17053
    134A ->169A        0.11565
    134A ->170A       -0.11154
    129B ->136B       -0.12104
    129B ->137B        0.11774
    130B ->136B        0.45888
    130B ->138B       -0.21497
    131B ->136B        0.20134
    131B ->137B       -0.20657
 
 Excited State  89:  3.350-A      5.5973 eV  221.51 nm  f=0.0128  <S**2>=2.556
    134A ->163A        0.35396
    134A ->165A        0.32133
    134A ->166A       -0.20133
    134A ->167A        0.10998
    110B ->133B       -0.27501
    111B ->133B        0.16527
    130B ->136B        0.58469
    130B ->137B       -0.16883
    130B ->138B       -0.34854
    131B ->136B        0.15567
 
 Excited State  90:  3.091-A      5.6039 eV  221.25 nm  f=0.0023  <S**2>=2.139
    134A ->165A        0.10172
    108B ->133B        0.22351
    109B ->133B       -0.10691
    110B ->133B        0.68882
    111B ->133B       -0.55473
    130B ->136B        0.21916
    130B ->138B       -0.15852
 
 Excited State  91:  3.434-A      5.6196 eV  220.63 nm  f=0.0391  <S**2>=2.698
    126A ->135A       -0.12089
    130A ->136A        0.16382
    131A ->138A       -0.13956
    132A ->137A        0.11682
    132A ->138A       -0.13336
    132A ->139A       -0.15507
    134A ->164A        0.21310
    134A ->165A       -0.20777
    134A ->166A        0.14013
    127B ->134B       -0.19315
    128B ->134B       -0.11586
    128B ->137B       -0.10361
    129B ->136B        0.27354
    129B ->137B       -0.32643
    130B ->136B        0.13862
    131B ->136B       -0.18279
    131B ->137B        0.43777
    131B ->138B        0.17390
    131B ->139B       -0.11134
    132B ->136B        0.15092
    132B ->138B       -0.13451
 
 Excited State  92:  3.599-A      5.6450 eV  219.64 nm  f=0.0061  <S**2>=2.988
    121A ->135A        0.14036
    122A ->135A        0.13385
    123A ->135A       -0.22523
    124A ->135A       -0.14969
    126A ->135A        0.11620
    127A ->135A       -0.11054
    129A ->139A       -0.10388
    108B ->133B       -0.17606
    109B ->133B       -0.11488
    110B ->133B        0.17422
    111B ->133B        0.21899
    121B ->134B        0.13245
    122B ->134B        0.11178
    124B ->134B       -0.26618
    125B ->134B       -0.33052
    126B ->134B        0.45795
    128B ->134B       -0.13914
    129B ->135B       -0.22543
    129B ->139B        0.11182
    130B ->137B       -0.12067
    131B ->139B       -0.21522
 
 Excited State  93:  3.153-A      5.6562 eV  219.20 nm  f=0.0058  <S**2>=2.235
    123A ->135A        0.10401
    106B ->133B        0.20279
    107B ->133B        0.21873
    108B ->133B       -0.47435
    109B ->133B       -0.14929
    110B ->133B        0.50907
    111B ->133B        0.44278
    124B ->134B        0.11318
    125B ->134B        0.13715
    126B ->134B       -0.17140
    129B ->135B        0.10664
 
 Excited State  94:  3.174-A      5.6730 eV  218.55 nm  f=0.0087  <S**2>=2.269
    127A ->135A       -0.14459
    134A ->166A        0.10832
    109B ->133B        0.76301
    110B ->133B        0.23824
    126B ->134B        0.28831
    128B ->135B       -0.13031
    129B ->135B        0.23206
    131B ->139B        0.17409
 
 Excited State  95:  3.045-A      5.6834 eV  218.15 nm  f=0.0052  <S**2>=2.068
    134A ->163A       -0.39939
    134A ->165A       -0.11801
    134A ->166A       -0.38411
    134A ->167A        0.60581
    134A ->168A        0.22416
    134A ->169A       -0.23860
    134A ->170A        0.12760
    134A ->171A       -0.10081
    109B ->133B        0.28179
 
 Excited State  96:  3.385-A      5.6874 eV  218.00 nm  f=0.0112  <S**2>=2.614
    127A ->135A        0.20972
    129A ->137A       -0.10948
    129A ->139A       -0.20622
    134A ->163A        0.13671
    134A ->164A       -0.10135
    134A ->167A       -0.25381
    134A ->169A        0.10186
    134A ->170A       -0.10654
    109B ->133B        0.47253
    123B ->134B        0.10170
    126B ->134B       -0.36911
    127B ->139B        0.14118
    128B ->135B        0.19387
    129B ->135B       -0.34335
    131B ->139B       -0.24321
 
 Excited State  97:  3.610-A      5.6976 eV  217.61 nm  f=0.0017  <S**2>=3.008
    126B ->134B        0.10560
    130B ->137B        0.90009
    130B ->138B       -0.27976
    131B ->137B        0.17924
 
 Excited State  98:  3.191-A      5.7298 eV  216.38 nm  f=0.0006  <S**2>=2.295
    126A ->135A       -0.14705
    129A ->137A       -0.10164
    129A ->139A       -0.17916
    134A ->162A        0.23250
    134A ->164A        0.12398
    134A ->165A        0.13731
    134A ->166A        0.59497
    134A ->167A        0.35308
    134A ->168A       -0.17699
    134A ->169A       -0.13278
    134A ->170A        0.25408
    134A ->171A        0.14006
    134A ->174A       -0.10960
    127B ->135B       -0.24741
    129B ->139B        0.12534
 
 Excited State  99:  3.729-A      5.7405 eV  215.98 nm  f=0.0146  <S**2>=3.226
    121A ->135A        0.15700
    122A ->135A        0.11448
    123A ->135A       -0.23038
    124A ->135A       -0.11304
    126A ->135A        0.17180
    127A ->135A        0.20038
    128A ->137A        0.10461
    134A ->166A        0.10838
    120B ->134B       -0.15696
    122B ->134B        0.15845
    123B ->134B        0.21633
    125B ->134B       -0.18134
    126B ->134B       -0.30465
    128B ->137B       -0.10959
    129B ->134B       -0.11563
    129B ->135B        0.37458
    129B ->136B       -0.24120
    129B ->137B       -0.26172
    129B ->138B        0.14472
    130B ->137B        0.13464
    130B ->139B       -0.10195
    131B ->137B        0.10266
    131B ->138B       -0.17361
    131B ->139B        0.14712
 
 Excited State 100:  3.286-A      5.7700 eV  214.88 nm  f=0.0010  <S**2>=2.449
    126A ->135A        0.19566
    129A ->139A        0.16124
    131A ->136A        0.22349
    134A ->163A       -0.10050
    134A ->164A       -0.10980
    134A ->165A        0.38292
    134A ->166A        0.37318
    134A ->167A        0.16197
    134A ->168A        0.19945
    134A ->169A        0.10372
    123B ->134B       -0.12364
    125B ->134B        0.14873
    126B ->134B        0.15771
    127B ->135B        0.29833
    128B ->135B        0.14677
    129B ->135B       -0.19936
    129B ->136B       -0.24232
    129B ->138B        0.10429
    129B ->139B       -0.10392
    131B ->138B       -0.13560
    131B ->139B       -0.13967
 SavETr:  write IOETrn=   770 NScale= 10 NData=  16 NLR=1 NState=  100 LETran=    1810.

 **********************************************************************

            Population analysis using the SCF Density.

 **********************************************************************

 Orbital symmetries:
 Alpha Orbitals:
       Occupied  (A) (A) (A) (A) (A) (A) (A) (A) (A) (A) (A) (A)
                 (A) (A) (A) (A) (A) (A) (A) (A) (A) (A) (A) (A)
                 (A) (A) (A) (A) (A) (A) (A) (A) (A) (A) (A) (A)
                 (A) (A) (A) (A) (A) (A) (A) (A) (A) (A) (A) (A)
                 (A) (A) (A) (A) (A) (A) (A) (A) (A) (A) (A) (A)
                 (A) (A) (A) (A) (A) (A) (A) (A) (A) (A) (A) (A)
                 (A) (A) (A) (A) (A) (A) (A) (A) (A) (A) (A) (A)
                 (A) (A) (A) (A) (A) (A) (A) (A) (A) (A) (A) (A)
                 (A) (A) (A) (A) (A) (A) (A) (A) (A) (A) (A) (A)
                 (A) (A) (A) (A) (A) (A) (A) (A) (A) (A) (A) (A)
                 (A) (A) (A) (A) (A) (A) (A) (A) (A) (A) (A) (A)
                 (A) (A)
       Virtual   (A) (A) (A) (A) (A) (A) (A) (A) (A) (A) (A) (A)
                 (A) (A) (A) (A) (A) (A) (A) (A) (A) (A) (A) (A)
                 (A) (A) (A) (A) (A) (A) (A) (A) (A) (A) (A) (A)
                 (A) (A) (A) (A) (A) (A) (A) (A) (A) (A) (A) (A)
                 (A) (A) (A) (A) (A) (A) (A) (A) (A) (A) (A) (A)
                 (A) (A) (A) (A) (A) (A) (A) (A) (A) (A) (A) (A)
                 (A) (A) (A) (A) (A) (A) (A) (A) (A) (A) (A) (A)
                 (A) (A) (A) (A) (A) (A) (A) (A) (A) (A) (A) (A)
                 (A) (A) (A) (A) (A) (A) (A) (A) (A) (A) (A) (A)
                 (A) (A) (A) (A) (A) (A) (A) (A) (A) (A) (A) (A)
                 (A) (A) (A) (A) (A) (A) (A) (A) (A) (A) (A) (A)
                 (A) (A) (A) (A) (A) (A) (A) (A) (A) (A) (A) (A)
                 (A) (A) (A) (A) (A) (A) (A) (A) (A) (A) (A) (A)
                 (A) (A) (A) (A) (A) (A) (A) (A) (A) (A) (A) (A)
                 (A) (A) (A) (A) (A) (A) (A) (A) (A) (A) (A) (A)
                 (A) (A) (A) (A) (A) (A) (A) (A) (A) (A) (A) (A)
                 (A) (A) (A) (A) (A) (A) (A) (A) (A) (A) (A) (A)
                 (A) (A) (A) (A) (A) (A) (A) (A) (A) (A) (A) (A)
                 (A) (A) (A) (A) (A) (A) (A) (A) (A) (A) (A) (A)
                 (A) (A) (A) (A) (A) (A) (A) (A) (A) (A) (A) (A)
                 (A) (A) (A) (A) (A) (A) (A) (A) (A) (A) (A) (A)
                 (A) (A) (A) (A) (A) (A) (A) (A) (A) (A) (A) (A)
                 (A) (A) (A) (A) (A) (A) (A) (A) (A) (A) (A) (A)
                 (A) (A) (A) (A) (A) (A) (A) (A) (A) (A) (A) (A)
                 (A) (A) (A) (A) (A) (A) (A) (A) (A) (A) (A) (A)
                 (A) (A) (A) (A) (A) (A) (A) (A) (A) (A) (A) (A)
                 (A) (A) (A) (A) (A) (A) (A) (A) (A) (A) (A) (A)
                 (A) (A) (A) (A) (A) (A) (A) (A) (A) (A) (A) (A)
                 (A) (A) (A) (A) (A) (A) (A) (A) (A) (A) (A) (A)
                 (A) (A) (A) (A) (A) (A) (A) (A) (A) (A) (A) (A)
                 (A) (A) (A) (A) (A) (A) (A) (A) (A) (A) (A) (A)
                 (A) (A) (A) (A) (A) (A) (A) (A) (A) (A) (A) (A)
                 (A) (A) (A) (A) (A) (A) (A) (A) (A) (A) (A) (A)
                 (A) (A) (A) (A) (A) (A) (A) (A) (A) (A) (A) (A)
                 (A) (A) (A) (A) (A) (A) (A) (A) (A) (A) (A) (A)
                 (A) (A) (A) (A) (A) (A) (A) (A) (A) (A) (A) (A)
                 (A) (A) (A) (A) (A) (A) (A) (A) (A) (A) (A) (A)
                 (A) (A) (A) (A) (A) (A) (A) (A) (A) (A) (A) (A)
                 (A) (A) (A) (A) (A) (A) (A) (A) (A) (A) (A) (A)
                 (A) (A) (A) (A) (A) (A) (A) (A) (A) (A) (A) (A)
                 (A) (A) (A) (A) (A) (A) (A) (A) (A) (A) (A) (A)
                 (A) (A) (A) (A) (A) (A) (A) (A) (A) (A) (A) (A)
                 (A) (A) (A) (A) (A) (A) (A) (A) (A) (A) (A) (A)
                 (A) (A) (A) (A) (A) (A) (A) (A) (A) (A) (A) (A)
                 (A) (A) (A) (A) (A) (A) (A) (A) (A) (A) (A) (A)
                 (A) (A) (A) (A) (A) (A) (A) (A) (A) (A)
 Beta  Orbitals:
       Occupied  (A) (A) (A) (A) (A) (A) (A) (A) (A) (A) (A) (A)
                 (A) (A) (A) (A) (A) (A) (A) (A) (A) (A) (A) (A)
                 (A) (A) (A) (A) (A) (A) (A) (A) (A) (A) (A) (A)
                 (A) (A) (A) (A) (A) (A) (A) (A) (A) (A) (A) (A)
                 (A) (A) (A) (A) (A) (A) (A) (A) (A) (A) (A) (A)
                 (A) (A) (A) (A) (A) (A) (A) (A) (A) (A) (A) (A)
                 (A) (A) (A) (A) (A) (A) (A) (A) (A) (A) (A) (A)
                 (A) (A) (A) (A) (A) (A) (A) (A) (A) (A) (A) (A)
                 (A) (A) (A) (A) (A) (A) (A) (A) (A) (A) (A) (A)
                 (A) (A) (A) (A) (A) (A) (A) (A) (A) (A) (A) (A)
                 (A) (A) (A) (A) (A) (A) (A) (A) (A) (A) (A) (A)
       Virtual   (A) (A) (A) (A) (A) (A) (A) (A) (A) (A) (A) (A)
                 (A) (A) (A) (A) (A) (A) (A) (A) (A) (A) (A) (A)
                 (A) (A) (A) (A) (A) (A) (A) (A) (A) (A) (A) (A)
                 (A) (A) (A) (A) (A) (A) (A) (A) (A) (A) (A) (A)
                 (A) (A) (A) (A) (A) (A) (A) (A) (A) (A) (A) (A)
                 (A) (A) (A) (A) (A) (A) (A) (A) (A) (A) (A) (A)
                 (A) (A) (A) (A) (A) (A) (A) (A) (A) (A) (A) (A)
                 (A) (A) (A) (A) (A) (A) (A) (A) (A) (A) (A) (A)
                 (A) (A) (A) (A) (A) (A) (A) (A) (A) (A) (A) (A)
                 (A) (A) (A) (A) (A) (A) (A) (A) (A) (A) (A) (A)
                 (A) (A) (A) (A) (A) (A) (A) (A) (A) (A) (A) (A)
                 (A) (A) (A) (A) (A) (A) (A) (A) (A) (A) (A) (A)
                 (A) (A) (A) (A) (A) (A) (A) (A) (A) (A) (A) (A)
                 (A) (A) (A) (A) (A) (A) (A) (A) (A) (A) (A) (A)
                 (A) (A) (A) (A) (A) (A) (A) (A) (A) (A) (A) (A)
                 (A) (A) (A) (A) (A) (A) (A) (A) (A) (A) (A) (A)
                 (A) (A) (A) (A) (A) (A) (A) (A) (A) (A) (A) (A)
                 (A) (A) (A) (A) (A) (A) (A) (A) (A) (A) (A) (A)
                 (A) (A) (A) (A) (A) (A) (A) (A) (A) (A) (A) (A)
                 (A) (A) (A) (A) (A) (A) (A) (A) (A) (A) (A) (A)
                 (A) (A) (A) (A) (A) (A) (A) (A) (A) (A) (A) (A)
                 (A) (A) (A) (A) (A) (A) (A) (A) (A) (A) (A) (A)
                 (A) (A) (A) (A) (A) (A) (A) (A) (A) (A) (A) (A)
                 (A) (A) (A) (A) (A) (A) (A) (A) (A) (A) (A) (A)
                 (A) (A) (A) (A) (A) (A) (A) (A) (A) (A) (A) (A)
                 (A) (A) (A) (A) (A) (A) (A) (A) (A) (A) (A) (A)
                 (A) (A) (A) (A) (A) (A) (A) (A) (A) (A) (A) (A)
                 (A) (A) (A) (A) (A) (A) (A) (A) (A) (A) (A) (A)
                 (A) (A) (A) (A) (A) (A) (A) (A) (A) (A) (A) (A)
                 (A) (A) (A) (A) (A) (A) (A) (A) (A) (A) (A) (A)
                 (A) (A) (A) (A) (A) (A) (A) (A) (A) (A) (A) (A)
                 (A) (A) (A) (A) (A) (A) (A) (A) (A) (A) (A) (A)
                 (A) (A) (A) (A) (A) (A) (A) (A) (A) (A) (A) (A)
                 (A) (A) (A) (A) (A) (A) (A) (A) (A) (A) (A) (A)
                 (A) (A) (A) (A) (A) (A) (A) (A) (A) (A) (A) (A)
                 (A) (A) (A) (A) (A) (A) (A) (A) (A) (A) (A) (A)
                 (A) (A) (A) (A) (A) (A) (A) (A) (A) (A) (A) (A)
                 (A) (A) (A) (A) (A) (A) (A) (A) (A) (A) (A) (A)
                 (A) (A) (A) (A) (A) (A) (A) (A) (A) (A) (A) (A)
                 (A) (A) (A) (A) (A) (A) (A) (A) (A) (A) (A) (A)
                 (A) (A) (A) (A) (A) (A) (A) (A) (A) (A) (A) (A)
                 (A) (A) (A) (A) (A) (A) (A) (A) (A) (A) (A) (A)
                 (A) (A) (A) (A) (A) (A) (A) (A) (A) (A) (A) (A)
                 (A) (A) (A) (A) (A) (A) (A) (A) (A) (A) (A) (A)
                 (A) (A) (A) (A) (A) (A) (A) (A) (A) (A) (A) (A)
                 (A) (A) (A) (A) (A) (A) (A) (A) (A) (A) (A) (A)
 The electronic state is 3-A.
 Alpha  occ. eigenvalues --  -77.08746 -77.08656 -19.19443 -19.12128 -19.06791
 Alpha  occ. eigenvalues --  -14.32129 -10.28320 -10.21267 -10.21038 -10.20994
 Alpha  occ. eigenvalues --  -10.20661 -10.20594 -10.20501 -10.18981 -10.18909
 Alpha  occ. eigenvalues --  -10.17788 -10.17617 -10.17549 -10.17537 -10.17501
 Alpha  occ. eigenvalues --  -10.17424 -10.17374 -10.17312 -10.17250 -10.17098
 Alpha  occ. eigenvalues --  -10.16783 -10.16742 -10.16641 -10.16488 -10.15789
 Alpha  occ. eigenvalues --   -6.57959  -6.57840  -4.74532  -4.74497  -4.74417
 Alpha  occ. eigenvalues --   -4.74374  -4.74338  -4.74238  -3.06459  -1.90925
 Alpha  occ. eigenvalues --   -1.90747  -1.89092  -1.10102  -0.93517  -0.91010
 Alpha  occ. eigenvalues --   -0.88758  -0.82309  -0.81925  -0.79880  -0.79582
 Alpha  occ. eigenvalues --   -0.78207  -0.76401  -0.72916  -0.68770  -0.68125
 Alpha  occ. eigenvalues --   -0.67994  -0.67861  -0.67587  -0.67148  -0.67035
 Alpha  occ. eigenvalues --   -0.66811  -0.66619  -0.63365  -0.61400  -0.58353
 Alpha  occ. eigenvalues --   -0.57488  -0.55449  -0.54577  -0.54221  -0.51333
 Alpha  occ. eigenvalues --   -0.50812  -0.48975  -0.47862  -0.47243  -0.47119
 Alpha  occ. eigenvalues --   -0.46045  -0.45985  -0.45394  -0.45061  -0.44648
 Alpha  occ. eigenvalues --   -0.44510  -0.44210  -0.43947  -0.43763  -0.43523
 Alpha  occ. eigenvalues --   -0.42760  -0.42626  -0.42384  -0.42142  -0.42087
 Alpha  occ. eigenvalues --   -0.41505  -0.40930  -0.40408  -0.39790  -0.39554
 Alpha  occ. eigenvalues --   -0.39186  -0.38701  -0.38180  -0.37854  -0.37510
 Alpha  occ. eigenvalues --   -0.37365  -0.37189  -0.37060  -0.36678  -0.36227
 Alpha  occ. eigenvalues --   -0.36080  -0.35674  -0.35601  -0.35495  -0.34964
 Alpha  occ. eigenvalues --   -0.34861  -0.34643  -0.34427  -0.33707  -0.33568
 Alpha  occ. eigenvalues --   -0.33189  -0.32784  -0.32758  -0.32354  -0.32235
 Alpha  occ. eigenvalues --   -0.31560  -0.31397  -0.30688  -0.29921  -0.29409
 Alpha  occ. eigenvalues --   -0.28773  -0.28374  -0.27313  -0.26725  -0.24382
 Alpha  occ. eigenvalues --   -0.23857  -0.22748  -0.21423  -0.09087
 Alpha virt. eigenvalues --   -0.03836  -0.00332   0.00328   0.00373   0.00784
 Alpha virt. eigenvalues --    0.04279   0.05102   0.05802   0.06316   0.06826
 Alpha virt. eigenvalues --    0.07284   0.07698   0.07951   0.08491   0.08760
 Alpha virt. eigenvalues --    0.09081   0.09386   0.09942   0.10137   0.10480
 Alpha virt. eigenvalues --    0.10751   0.10952   0.11226   0.11888   0.12055
 Alpha virt. eigenvalues --    0.12358   0.13059   0.13312   0.13537   0.13845
 Alpha virt. eigenvalues --    0.13957   0.14212   0.14274   0.14773   0.15059
 Alpha virt. eigenvalues --    0.15346   0.15645   0.16191   0.16485   0.16718
 Alpha virt. eigenvalues --    0.17112   0.17434   0.17569   0.17745   0.17985
 Alpha virt. eigenvalues --    0.18126   0.18460   0.18975   0.19359   0.20065
 Alpha virt. eigenvalues --    0.20302   0.20492   0.20722   0.20858   0.21247
 Alpha virt. eigenvalues --    0.21398   0.21671   0.21701   0.22140   0.22554
 Alpha virt. eigenvalues --    0.23112   0.23678   0.24234   0.24476   0.24800
 Alpha virt. eigenvalues --    0.25098   0.25549   0.26090   0.26376   0.27064
 Alpha virt. eigenvalues --    0.27243   0.27667   0.28884   0.29290   0.30521
 Alpha virt. eigenvalues --    0.30874   0.31624   0.32438   0.33983   0.34689
 Alpha virt. eigenvalues --    0.35245   0.36618   0.37481   0.38559   0.39729
 Alpha virt. eigenvalues --    0.40033   0.40639   0.40808   0.41121   0.41675
 Alpha virt. eigenvalues --    0.42217   0.42476   0.43182   0.43484   0.43744
 Alpha virt. eigenvalues --    0.43987   0.44496   0.45377   0.45735   0.46534
 Alpha virt. eigenvalues --    0.46829   0.48047   0.48332   0.49416   0.49853
 Alpha virt. eigenvalues --    0.50309   0.51352   0.52282   0.52689   0.53465
 Alpha virt. eigenvalues --    0.53680   0.54206   0.54534   0.54615   0.54807
 Alpha virt. eigenvalues --    0.55473   0.56366   0.56419   0.57067   0.57783
 Alpha virt. eigenvalues --    0.58225   0.58546   0.58962   0.59191   0.59732
 Alpha virt. eigenvalues --    0.60016   0.60846   0.60918   0.61232   0.61742
 Alpha virt. eigenvalues --    0.62033   0.62398   0.63189   0.63418   0.63441
 Alpha virt. eigenvalues --    0.63963   0.64467   0.64679   0.65055   0.65206
 Alpha virt. eigenvalues --    0.65471   0.65494   0.65883   0.66156   0.66325
 Alpha virt. eigenvalues --    0.66629   0.66679   0.66858   0.67159   0.67569
 Alpha virt. eigenvalues --    0.67854   0.68009   0.68361   0.68641   0.68797
 Alpha virt. eigenvalues --    0.68973   0.69180   0.69503   0.69632   0.70094
 Alpha virt. eigenvalues --    0.70328   0.70666   0.70958   0.71395   0.71663
 Alpha virt. eigenvalues --    0.71785   0.71985   0.72298   0.72625   0.72843
 Alpha virt. eigenvalues --    0.72911   0.73084   0.73454   0.73779   0.73932
 Alpha virt. eigenvalues --    0.74245   0.74505   0.74998   0.75242   0.75429
 Alpha virt. eigenvalues --    0.75851   0.76153   0.76449   0.76607   0.76920
 Alpha virt. eigenvalues --    0.77419   0.78057   0.78360   0.78862   0.79170
 Alpha virt. eigenvalues --    0.79510   0.79831   0.80515   0.80684   0.80872
 Alpha virt. eigenvalues --    0.81407   0.81815   0.82173   0.82335   0.83034
 Alpha virt. eigenvalues --    0.83480   0.84139   0.84489   0.84763   0.85364
 Alpha virt. eigenvalues --    0.86406   0.87321   0.87479   0.87865   0.89140
 Alpha virt. eigenvalues --    0.89510   0.89917   0.90701   0.92122   0.92299
 Alpha virt. eigenvalues --    0.92610   0.94119   0.94922   0.95942   0.96539
 Alpha virt. eigenvalues --    0.96639   0.98903   0.99275   1.00739   1.01081
 Alpha virt. eigenvalues --    1.02094   1.02852   1.03800   1.04471   1.04722
 Alpha virt. eigenvalues --    1.05370   1.06165   1.06394   1.06898   1.07958
 Alpha virt. eigenvalues --    1.08718   1.09187   1.09789   1.11106   1.12317
 Alpha virt. eigenvalues --    1.12653   1.13369   1.15241   1.16088   1.16294
 Alpha virt. eigenvalues --    1.16988   1.17820   1.18933   1.19611   1.20216
 Alpha virt. eigenvalues --    1.21130   1.21354   1.21658   1.22160   1.23201
 Alpha virt. eigenvalues --    1.23582   1.24562   1.24792   1.25374   1.26493
 Alpha virt. eigenvalues --    1.27177   1.27754   1.28697   1.29145   1.29663
 Alpha virt. eigenvalues --    1.30174   1.30384   1.31327   1.32438   1.33226
 Alpha virt. eigenvalues --    1.34147   1.34429   1.35118   1.38222   1.39621
 Alpha virt. eigenvalues --    1.41544   1.42585   1.43979   1.45225   1.47009
 Alpha virt. eigenvalues --    1.48341   1.49383   1.50248   1.51256   1.51679
 Alpha virt. eigenvalues --    1.51891   1.53038   1.53134   1.53659   1.54067
 Alpha virt. eigenvalues --    1.54554   1.54585   1.55495   1.56046   1.56231
 Alpha virt. eigenvalues --    1.56669   1.56995   1.57139   1.57798   1.58332
 Alpha virt. eigenvalues --    1.58675   1.58779   1.58871   1.59502   1.59646
 Alpha virt. eigenvalues --    1.60131   1.60915   1.61285   1.61598   1.62167
 Alpha virt. eigenvalues --    1.62844   1.64157   1.64757   1.65108   1.65250
 Alpha virt. eigenvalues --    1.66501   1.67185   1.67930   1.68156   1.68481
 Alpha virt. eigenvalues --    1.69162   1.70113   1.70886   1.71413   1.72256
 Alpha virt. eigenvalues --    1.74168   1.74673   1.75856   1.76190   1.76920
 Alpha virt. eigenvalues --    1.77293   1.77482   1.77720   1.77947   1.78119
 Alpha virt. eigenvalues --    1.78529   1.79156   1.79626   1.79986   1.80064
 Alpha virt. eigenvalues --    1.80678   1.80954   1.81108   1.81553   1.82008
 Alpha virt. eigenvalues --    1.82739   1.82901   1.83619   1.83828   1.84295
 Alpha virt. eigenvalues --    1.84402   1.84745   1.85021   1.85193   1.85588
 Alpha virt. eigenvalues --    1.85934   1.86443   1.86651   1.87111   1.87313
 Alpha virt. eigenvalues --    1.87932   1.88813   1.89583   1.89791   1.89923
 Alpha virt. eigenvalues --    1.90902   1.90958   1.91558   1.92133   1.92640
 Alpha virt. eigenvalues --    1.92945   1.93372   1.93520   1.93634   1.94068
 Alpha virt. eigenvalues --    1.94469   1.94881   1.95478   1.95686   1.95978
 Alpha virt. eigenvalues --    1.96229   1.96533   1.97202   1.97494   1.97849
 Alpha virt. eigenvalues --    1.98913   1.99139   1.99551   2.00539   2.00758
 Alpha virt. eigenvalues --    2.00985   2.01303   2.01480   2.02292   2.02383
 Alpha virt. eigenvalues --    2.02783   2.03433   2.03802   2.04157   2.04725
 Alpha virt. eigenvalues --    2.04949   2.06287   2.08172   2.09592   2.10499
 Alpha virt. eigenvalues --    2.12055   2.14652   2.15937   2.16142   2.16721
 Alpha virt. eigenvalues --    2.17237   2.17272   2.18129   2.18197   2.18485
 Alpha virt. eigenvalues --    2.18980   2.19192   2.19915   2.20201   2.20526
 Alpha virt. eigenvalues --    2.21122   2.21440   2.22141   2.22956   2.23308
 Alpha virt. eigenvalues --    2.23795   2.24140   2.24383   2.25151   2.25836
 Alpha virt. eigenvalues --    2.27218   2.27799   2.29139   2.30570   2.31355
 Alpha virt. eigenvalues --    2.35547   2.37237   2.38429   2.38882   2.39240
 Alpha virt. eigenvalues --    2.40336   2.40695   2.40937   2.41062   2.41589
 Alpha virt. eigenvalues --    2.42164   2.42999   2.43234   2.43347   2.43564
 Alpha virt. eigenvalues --    2.44881   2.45588   2.46697   2.46804   2.47665
 Alpha virt. eigenvalues --    2.49154   2.49668   2.51286   2.52336   2.53870
 Alpha virt. eigenvalues --    2.55066   2.55474   2.55939   2.56319   2.56405
 Alpha virt. eigenvalues --    2.57165   2.57540   2.58155   2.58653   2.61181
 Alpha virt. eigenvalues --    2.61763   2.62223   2.62383   2.62870   2.63267
 Alpha virt. eigenvalues --    2.63573   2.63724   2.64113   2.64327   2.64416
 Alpha virt. eigenvalues --    2.64931   2.65008   2.66271   2.66931   2.68231
 Alpha virt. eigenvalues --    2.70434   2.72259   2.72606   2.73063   2.73354
 Alpha virt. eigenvalues --    2.74093   2.74427   2.75408   2.77174   2.79908
 Alpha virt. eigenvalues --    2.83178   2.84161   2.86485   2.87294   2.87850
 Alpha virt. eigenvalues --    2.87857   2.88607   2.89129   2.89436   2.89626
 Alpha virt. eigenvalues --    2.90037   2.90783   2.91290   2.92736   2.93194
 Alpha virt. eigenvalues --    2.93490   2.94165   2.94423   2.94839   2.95325
 Alpha virt. eigenvalues --    2.95706   2.96640   2.96773   2.97031   2.97125
 Alpha virt. eigenvalues --    2.98497   2.98712   2.99024   2.99440   3.00824
 Alpha virt. eigenvalues --    3.02221   3.02908   3.03691   3.04554   3.05649
 Alpha virt. eigenvalues --    3.06196   3.07119   3.07538   3.07754   3.08600
 Alpha virt. eigenvalues --    3.09239   3.09857   3.10180   3.11393   3.11755
 Alpha virt. eigenvalues --    3.12173   3.13852   3.19916   3.20668   3.35737
 Alpha virt. eigenvalues --    3.57290   3.73707   3.78041   3.88210  45.27090
  Beta  occ. eigenvalues --  -77.08724 -77.08625 -19.19493 -19.11439 -19.06776
  Beta  occ. eigenvalues --  -14.31515 -10.28385 -10.21232 -10.21034 -10.20968
  Beta  occ. eigenvalues --  -10.20658 -10.20320 -10.20210 -10.19011 -10.18941
  Beta  occ. eigenvalues --  -10.17789 -10.17618 -10.17541 -10.17536 -10.17501
  Beta  occ. eigenvalues --  -10.17416 -10.17368 -10.17310 -10.17250 -10.17095
  Beta  occ. eigenvalues --  -10.16880 -10.16845 -10.16637 -10.16485 -10.15149
  Beta  occ. eigenvalues --   -6.57932  -6.57805  -4.74504  -4.74483  -4.74388
  Beta  occ. eigenvalues --   -4.74355  -4.74288  -4.74154  -3.03681  -1.87986
  Beta  occ. eigenvalues --   -1.86905  -1.86679  -1.10192  -0.92018  -0.90092
  Beta  occ. eigenvalues --   -0.88646  -0.82235  -0.81860  -0.79852  -0.79554
  Beta  occ. eigenvalues --   -0.77844  -0.75626  -0.72719  -0.68647  -0.68095
  Beta  occ. eigenvalues --   -0.67985  -0.67824  -0.67575  -0.67137  -0.67026
  Beta  occ. eigenvalues --   -0.66797  -0.66608  -0.62895  -0.61293  -0.57546
  Beta  occ. eigenvalues --   -0.57254  -0.55535  -0.54533  -0.54184  -0.51242
  Beta  occ. eigenvalues --   -0.50708  -0.48807  -0.47636  -0.47103  -0.47020
  Beta  occ. eigenvalues --   -0.45896  -0.45803  -0.45251  -0.45043  -0.44526
  Beta  occ. eigenvalues --   -0.44377  -0.44058  -0.43877  -0.43582  -0.43426
  Beta  occ. eigenvalues --   -0.42662  -0.42553  -0.42192  -0.42076  -0.41928
  Beta  occ. eigenvalues --   -0.41204  -0.40791  -0.40323  -0.39716  -0.39184
  Beta  occ. eigenvalues --   -0.39047  -0.38635  -0.38026  -0.37799  -0.37488
  Beta  occ. eigenvalues --   -0.37263  -0.37161  -0.37021  -0.36520  -0.36143
  Beta  occ. eigenvalues --   -0.35569  -0.35548  -0.35454  -0.35046  -0.34719
  Beta  occ. eigenvalues --   -0.34480  -0.34329  -0.33830  -0.33451  -0.33177
  Beta  occ. eigenvalues --   -0.32832  -0.32476  -0.32309  -0.32164  -0.31217
  Beta  occ. eigenvalues --   -0.31058  -0.30429  -0.29643  -0.29473  -0.28859
  Beta  occ. eigenvalues --   -0.28169  -0.26748  -0.26155  -0.25580  -0.22961
  Beta  occ. eigenvalues --   -0.22305  -0.21580
  Beta virt. eigenvalues --   -0.11427  -0.02789  -0.01108  -0.00024   0.00494
  Beta virt. eigenvalues --    0.00855   0.02031   0.04354   0.05283   0.06131
  Beta virt. eigenvalues --    0.06373   0.07078   0.07426   0.07846   0.08110
  Beta virt. eigenvalues --    0.08619   0.08945   0.09132   0.09522   0.10138
  Beta virt. eigenvalues --    0.10243   0.10549   0.10853   0.11037   0.11301
  Beta virt. eigenvalues --    0.11948   0.12360   0.12464   0.13186   0.13490
  Beta virt. eigenvalues --    0.13588   0.13972   0.14055   0.14253   0.14383
  Beta virt. eigenvalues --    0.15003   0.15225   0.15707   0.16034   0.16280
  Beta virt. eigenvalues --    0.16563   0.16765   0.17243   0.17498   0.17644
  Beta virt. eigenvalues --    0.17910   0.18118   0.18303   0.18529   0.19046
  Beta virt. eigenvalues --    0.19443   0.20125   0.20437   0.20566   0.20818
  Beta virt. eigenvalues --    0.20964   0.21314   0.21449   0.21719   0.21733
  Beta virt. eigenvalues --    0.22235   0.22600   0.23201   0.23846   0.24475
  Beta virt. eigenvalues --    0.24536   0.24875   0.25156   0.25604   0.26141
  Beta virt. eigenvalues --    0.26510   0.27202   0.27446   0.27790   0.28956
  Beta virt. eigenvalues --    0.29588   0.30902   0.31260   0.32029   0.32722
  Beta virt. eigenvalues --    0.34151   0.34899   0.35505   0.36760   0.37623
  Beta virt. eigenvalues --    0.38777   0.39792   0.40173   0.40812   0.40902
  Beta virt. eigenvalues --    0.41190   0.41814   0.42348   0.42662   0.43344
  Beta virt. eigenvalues --    0.43691   0.43936   0.44272   0.44732   0.45596
  Beta virt. eigenvalues --    0.45948   0.46868   0.47035   0.48256   0.48516
  Beta virt. eigenvalues --    0.49622   0.50303   0.50415   0.51621   0.52462
  Beta virt. eigenvalues --    0.52827   0.53680   0.53963   0.54359   0.54799
  Beta virt. eigenvalues --    0.54892   0.55040   0.55789   0.56493   0.56944
  Beta virt. eigenvalues --    0.57234   0.58053   0.58351   0.58800   0.59083
  Beta virt. eigenvalues --    0.59267   0.59791   0.60106   0.60945   0.61132
  Beta virt. eigenvalues --    0.61448   0.61815   0.62171   0.62603   0.63354
  Beta virt. eigenvalues --    0.63472   0.63644   0.64278   0.64552   0.64819
  Beta virt. eigenvalues --    0.65108   0.65307   0.65529   0.65566   0.65966
  Beta virt. eigenvalues --    0.66205   0.66378   0.66704   0.66909   0.66963
  Beta virt. eigenvalues --    0.67251   0.67666   0.67959   0.68047   0.68443
  Beta virt. eigenvalues --    0.68672   0.68838   0.69031   0.69269   0.69550
  Beta virt. eigenvalues --    0.69681   0.70205   0.70393   0.70732   0.71111
  Beta virt. eigenvalues --    0.71519   0.71808   0.71909   0.72112   0.72381
  Beta virt. eigenvalues --    0.72705   0.72908   0.73011   0.73164   0.73565
  Beta virt. eigenvalues --    0.73862   0.74039   0.74319   0.74652   0.75093
  Beta virt. eigenvalues --    0.75338   0.75489   0.75962   0.76218   0.76549
  Beta virt. eigenvalues --    0.76727   0.77052   0.77555   0.78165   0.78439
  Beta virt. eigenvalues --    0.78971   0.79280   0.79607   0.79918   0.80620
  Beta virt. eigenvalues --    0.80778   0.80980   0.81496   0.81919   0.82273
  Beta virt. eigenvalues --    0.82416   0.83134   0.83565   0.84216   0.84610
  Beta virt. eigenvalues --    0.85000   0.85388   0.86500   0.87405   0.87627
  Beta virt. eigenvalues --    0.88054   0.89380   0.89611   0.90036   0.90850
  Beta virt. eigenvalues --    0.92366   0.92484   0.92748   0.94296   0.95090
  Beta virt. eigenvalues --    0.96033   0.96710   0.96837   0.99115   0.99529
  Beta virt. eigenvalues --    1.00885   1.01375   1.02276   1.03048   1.03974
  Beta virt. eigenvalues --    1.04644   1.04878   1.05591   1.06339   1.06540
  Beta virt. eigenvalues --    1.07077   1.08055   1.08872   1.09398   1.09940
  Beta virt. eigenvalues --    1.11422   1.12486   1.12913   1.13536   1.15417
  Beta virt. eigenvalues --    1.16234   1.16431   1.17074   1.17880   1.19019
  Beta virt. eigenvalues --    1.19820   1.20315   1.21260   1.21490   1.21852
  Beta virt. eigenvalues --    1.22368   1.23448   1.23857   1.24803   1.24984
  Beta virt. eigenvalues --    1.25658   1.26965   1.27443   1.27955   1.28915
  Beta virt. eigenvalues --    1.29263   1.30004   1.30380   1.30635   1.31437
  Beta virt. eigenvalues --    1.32701   1.33482   1.34538   1.34675   1.35236
  Beta virt. eigenvalues --    1.38413   1.40339   1.41925   1.42828   1.44162
  Beta virt. eigenvalues --    1.45539   1.47390   1.48449   1.49501   1.50364
  Beta virt. eigenvalues --    1.51371   1.51916   1.52010   1.53157   1.53229
  Beta virt. eigenvalues --    1.53702   1.54158   1.54614   1.54705   1.55539
  Beta virt. eigenvalues --    1.56122   1.56362   1.56708   1.57177   1.57224
  Beta virt. eigenvalues --    1.57883   1.58385   1.58744   1.58849   1.58918
  Beta virt. eigenvalues --    1.59606   1.59754   1.60240   1.61051   1.61418
  Beta virt. eigenvalues --    1.61775   1.62287   1.62933   1.64253   1.64856
  Beta virt. eigenvalues --    1.65234   1.65385   1.66614   1.67413   1.68062
  Beta virt. eigenvalues --    1.68408   1.68717   1.69288   1.70237   1.71313
  Beta virt. eigenvalues --    1.71716   1.72636   1.74448   1.74897   1.76083
  Beta virt. eigenvalues --    1.76488   1.77056   1.77523   1.77768   1.77819
  Beta virt. eigenvalues --    1.78051   1.78272   1.78619   1.79373   1.79756
  Beta virt. eigenvalues --    1.80205   1.80283   1.80848   1.81138   1.81408
  Beta virt. eigenvalues --    1.81733   1.82316   1.82948   1.83126   1.83729
  Beta virt. eigenvalues --    1.83954   1.84378   1.84500   1.84918   1.85240
  Beta virt. eigenvalues --    1.85377   1.85804   1.86060   1.86635   1.87109
  Beta virt. eigenvalues --    1.87233   1.88011   1.88924   1.89063   1.89873
  Beta virt. eigenvalues --    1.90070   1.90529   1.91024   1.91125   1.92000
  Beta virt. eigenvalues --    1.92333   1.92742   1.93025   1.93439   1.93583
  Beta virt. eigenvalues --    1.93782   1.94129   1.94514   1.94995   1.95561
  Beta virt. eigenvalues --    1.95862   1.96261   1.96391   1.97021   1.97460
  Beta virt. eigenvalues --    1.97796   1.98227   1.99412   1.99576   1.99795
  Beta virt. eigenvalues --    2.00758   2.00850   2.01081   2.01619   2.01786
  Beta virt. eigenvalues --    2.02377   2.02598   2.02938   2.03925   2.03996
  Beta virt. eigenvalues --    2.04486   2.04986   2.05360   2.07197   2.09049
  Beta virt. eigenvalues --    2.09730   2.10631   2.12775   2.15310   2.16102
  Beta virt. eigenvalues --    2.16226   2.16861   2.17312   2.17416   2.18212
  Beta virt. eigenvalues --    2.18247   2.18530   2.19187   2.19278   2.19987
  Beta virt. eigenvalues --    2.20351   2.20632   2.21186   2.21494   2.22231
  Beta virt. eigenvalues --    2.23027   2.23393   2.23936   2.24283   2.24528
  Beta virt. eigenvalues --    2.25348   2.25993   2.27597   2.28169   2.29520
  Beta virt. eigenvalues --    2.31064   2.31879   2.35715   2.37739   2.38729
  Beta virt. eigenvalues --    2.38940   2.39314   2.40572   2.40884   2.41296
  Beta virt. eigenvalues --    2.41516   2.41747   2.42392   2.43047   2.43457
  Beta virt. eigenvalues --    2.43544   2.43696   2.45298   2.45669   2.46799
  Beta virt. eigenvalues --    2.46976   2.47738   2.49370   2.50045   2.51537
  Beta virt. eigenvalues --    2.52513   2.54130   2.55098   2.55500   2.55992
  Beta virt. eigenvalues --    2.56357   2.56434   2.57270   2.57564   2.58364
  Beta virt. eigenvalues --    2.58726   2.61225   2.61733   2.62247   2.62401
  Beta virt. eigenvalues --    2.62898   2.63551   2.63617   2.63753   2.64136
  Beta virt. eigenvalues --    2.64305   2.64563   2.64951   2.65204   2.66518
  Beta virt. eigenvalues --    2.67069   2.68576   2.70907   2.72378   2.72939
  Beta virt. eigenvalues --    2.73260   2.73516   2.74162   2.74756   2.76758
  Beta virt. eigenvalues --    2.77973   2.80466   2.83902   2.84279   2.86642
  Beta virt. eigenvalues --    2.87329   2.87870   2.87928   2.88689   2.89206
  Beta virt. eigenvalues --    2.89461   2.89653   2.90096   2.90802   2.91344
  Beta virt. eigenvalues --    2.92826   2.93217   2.93785   2.94209   2.94529
  Beta virt. eigenvalues --    2.94993   2.95400   2.95752   2.96696   2.96812
  Beta virt. eigenvalues --    2.97058   2.97297   2.98570   2.99036   2.99317
  Beta virt. eigenvalues --    3.00346   3.01037   3.02284   3.03000   3.04009
  Beta virt. eigenvalues --    3.05168   3.05724   3.06382   3.07181   3.07696
  Beta virt. eigenvalues --    3.07968   3.08697   3.09314   3.09925   3.10249
  Beta virt. eigenvalues --    3.11517   3.12114   3.12251   3.13907   3.19860
  Beta virt. eigenvalues --    3.20596   3.36070   3.57540   3.73693   3.78734
  Beta virt. eigenvalues --    3.88244  45.21285
          Condensed to atoms (all electrons):
          Atomic-Atomic Spin Densities.
 Mulliken charges and spin densities:
               1          2
     1  P    0.318206   0.059645
     2  N   -0.313788   0.252748
     3  C    0.039539  -0.018740
     4  H    0.051766   0.000289
     5  H    0.069413   0.012784
     6  O   -0.504360   0.001577
     7  P    0.329001   0.078566
     8  C   -0.017864   0.194856
     9  C   -0.035212  -0.098863
    10  H   -0.024065   0.002984
    11  C   -0.078679   0.489034
    12  H   -0.029079  -0.024935
    13  C   -0.057468  -0.092896
    14  H   -0.024760   0.002537
    15  C    0.018022   0.186636
    16  C    0.010537  -0.020128
    17  H    0.060180   0.000004
    18  H    0.078425   0.009688
    19  Ru  -0.110659   0.737398
    20  H    0.167817   0.000635
    21  C   -0.375308  -0.000535
    22  C   -0.384627   0.008630
    23  C   -0.385360   0.014379
    24  C   -0.401468   0.001513
    25  C    0.089642   0.000106
    26  H    0.015427   0.000004
    27  H    0.046463  -0.000127
    28  H    0.017157   0.000179
    29  C    0.082508   0.000500
    30  H    0.016346   0.000356
    31  H    0.037272   0.002117
    32  H    0.012922   0.000009
    33  C    0.077667   0.000022
    34  H    0.014938   0.000479
    35  H    0.037842   0.000026
    36  H    0.029994  -0.000035
    37  C    0.077895   0.002036
    38  H    0.014744  -0.000077
    39  H    0.018849   0.002335
    40  H    0.028636  -0.000038
    41  C    0.073776  -0.000448
    42  H    0.017938   0.000640
    43  H    0.037380   0.000033
    44  H    0.035731   0.000854
    45  C    0.059674   0.000369
    46  H    0.031475  -0.000645
    47  H    0.039478   0.000426
    48  H    0.020936   0.000306
    49  C    0.077966   0.001018
    50  H    0.006662   0.000237
    51  H    0.012520   0.000332
    52  H    0.004434   0.000070
    53  C    0.077775   0.001185
    54  H    0.012247   0.000861
    55  H    0.035329   0.000003
    56  H    0.027657   0.000030
    57  C    0.077061   0.002020
    58  H    0.015416   0.001457
    59  H    0.044027  -0.000820
    60  H    0.008376  -0.000519
    61  C    0.075906   0.000031
    62  H    0.041441   0.000284
    63  H    0.023404   0.000589
    64  H    0.015531  -0.000037
    65  C    0.079251   0.002397
    66  H    0.012942  -0.000078
    67  H    0.016889   0.002269
    68  H    0.025040  -0.000028
    69  C    0.073157  -0.000394
    70  H    0.015394   0.000550
    71  H    0.038848   0.000023
    72  H    0.031787   0.000263
    73  O   -0.413948   0.236602
    74  C    0.118994  -0.035163
    75  H    0.211999  -0.004926
    76  O   -0.101005  -0.015493
 Sum of Mulliken charges =  -0.00000   2.00000
 Mulliken charges and spin densities with hydrogens summed into heavy atoms:
               1          2
     1  P    0.318206   0.059645
     2  N   -0.313788   0.252748
     3  C    0.160718  -0.005667
     6  O   -0.336543   0.002212
     7  P    0.329001   0.078566
     8  C   -0.017864   0.194856
     9  C   -0.059277  -0.095880
    11  C   -0.107757   0.464099
    13  C   -0.082228  -0.090359
    15  C    0.018022   0.186636
    16  C    0.149141  -0.010437
    19  Ru  -0.110659   0.737398
    21  C   -0.375308  -0.000535
    22  C   -0.384627   0.008630
    23  C   -0.385360   0.014379
    24  C   -0.401468   0.001513
    25  C    0.168689   0.000163
    29  C    0.149048   0.002982
    33  C    0.160440   0.000493
    37  C    0.140124   0.004257
    41  C    0.164825   0.001079
    45  C    0.151564   0.000456
    49  C    0.101582   0.001657
    53  C    0.153008   0.002079
    57  C    0.144881   0.002137
    61  C    0.156282   0.000867
    65  C    0.134122   0.004560
    69  C    0.159186   0.000443
    73  O   -0.201949   0.231677
    74  C    0.118994  -0.035163
    76  O   -0.101005  -0.015493
 Electronic spatial extent (au):  <R**2>=          13385.5036
 Charge=              0.0000 electrons
 Dipole moment (field-independent basis, Debye):
    X=              2.2322    Y=             -1.3431    Z=              0.6052  Tot=              2.6745
 Quadrupole moment (field-independent basis, Debye-Ang):
   XX=           -168.2555   YY=           -240.1088   ZZ=           -230.5722
   XY=             -4.3441   XZ=             -9.9097   YZ=              6.8263
 Traceless Quadrupole moment (field-independent basis, Debye-Ang):
   XX=             44.7233   YY=            -27.1300   ZZ=            -17.5933
   XY=             -4.3441   XZ=             -9.9097   YZ=              6.8263
 Octapole moment (field-independent basis, Debye-Ang**2):
  XXX=             14.2694  YYY=            -84.9760  ZZZ=             -4.0826  XYY=              8.0562
  XXY=            -34.0552  XXZ=              0.6145  XZZ=             10.9429  YZZ=            -25.4089
  YYZ=             -9.7059  XYZ=              8.4210
 Hexadecapole moment (field-independent basis, Debye-Ang**3):
 XXXX=         -10096.8139 YYYY=          -4503.7233 ZZZZ=          -3360.6924 XXXY=            -19.6247
 XXXZ=            -52.6596 YYYX=            -26.3541 YYYZ=             77.2968 ZZZX=            -35.5657
 ZZZY=             29.1155 XXYY=          -2404.2709 XXZZ=          -2222.6399 YYZZ=          -1268.8768
 XXYZ=              7.1834 YYXZ=            -72.1694 ZZXY=            -13.1751
 N-N= 4.530899235197D+03 E-N=-1.371588945764D+04  KE= 1.921324947280D+03
 Unable to Open any file for archive entry.
 1\1\GINC-NODE059\SP\UB3LYP TD-FC\def2SVP\C24H45N1O3P2Ru1(3)\DO57CIG\28
 -Nov-2024\0\\# td=(triplets,nstates=100,conver=3) b3lyp scrf=(smd,solv
 ent=water) def2svp empiricaldispersion=gd3bj int=ultrafine scf=xqc gue
 ss=read geom=check\\A_Ru_Cis_CO_straight_DFT_B3LYP_def2svp_smd_water_T
 _TDDFT_100\\0,3\P,0,2.4007684441,-0.1283876599,-0.1458070148\N,0,-0.05
 90148432,1.4922027612,-0.0815395461\C,0,2.1576631475,1.4014838125,-1.1
 56791157\H,0,3.0807680784,1.9899010063,-1.2436428787\H,0,1.8990840035,
 1.0147362923,-2.157461887\O,0,-0.1231265358,-0.7582270664,-2.039934940
 8\P,0,-2.4350247694,-0.1208053887,0.1362613158\C,0,1.0419405367,2.2117
 562946,-0.5677308961\C,0,1.1327018815,3.5807180722,-0.4463114406\H,0,2
 .022910386,4.073084821,-0.8461040386\C,0,0.1143415839,4.3347870049,0.1
 936184152\H,0,0.1788332895,5.4183424777,0.2964603196\C,0,-0.9888618662
 ,3.5974800184,0.7038825377\H,0,-1.8198462099,4.1083535271,1.1974886829
 \C,0,-1.056272472,2.2291569978,0.5697914102\C,0,-2.2429657816,1.452485
 1643,1.0773539078\H,0,-3.1599526082,2.0575691893,1.0533874519\H,0,-2.0
 896200355,1.1370245674,2.1245069642\Ru,0,-0.0281868914,-0.6611981448,0
 .0435464324\H,0,0.6093844899,-1.3114521337,-2.3298777024\C,0,-3.279149
 7568,0.3361712256,-1.5096182255\C,0,-3.5760864175,-1.2156116361,1.2028
 188749\C,0,3.5368001355,-1.2553281324,-1.1893795459\C,0,3.2770760982,0
 .3846574512,1.4666387977\C,0,2.4812886103,1.538945512,2.1091357273\H,0
 ,2.5725769192,2.4621341499,1.524908449\H,0,1.4143588161,1.3280822926,2
 .2351419039\H,0,2.9060092836,1.7257662128,3.1085430197\C,0,3.331313351
 5,-0.8157356231,2.4336142873\H,0,3.488069305,-0.4410226958,3.457823340
 3\H,0,2.4103357151,-1.4117986121,2.435444681\H,0,4.1627751131,-1.48974
 47488,2.1993666364\C,0,4.7011876159,0.9051186254,1.2173108182\H,0,5.09
 60403288,1.2981472415,2.1689459998\H,0,5.3849319805,0.1157955207,0.881
 1907752\H,0,4.7170312995,1.726994858,0.4863591982\C,0,4.6484376037,-0.
 4359733817,-1.8668427026\H,0,5.2919870015,0.0927897078,-1.1557777802\H
 ,0,5.284564046,-1.1304280124,-2.440739535\H,0,4.2368633938,0.294997377
 3,-2.5773807817\C,0,4.1374144103,-2.3630874836,-0.3125936567\H,0,4.634
 1590467,-3.0958427789,-0.9690616393\H,0,4.8931559299,-1.9824760995,0.3
 849898912\H,0,3.3632914715,-2.8965442473,0.2595457765\C,0,2.7164872598
 ,-1.9286442701,-2.2984578207\H,0,1.9223040733,-2.5686830021,-1.8893470
 538\H,0,2.2917086356,-1.1958823875,-2.998973556\H,0,3.3918963879,-2.57
 52970354,-2.8812055634\C,0,-3.2503007059,-0.8655945507,-2.4697489871\H
 ,0,-3.5966196771,-0.5275215423,-3.4609520748\H,0,-2.2297305933,-1.2549
 493757,-2.5726937035\H,0,-3.9157403862,-1.6750635534,-2.148564288\C,0,
 -4.7275086369,0.8027727576,-1.3015340642\H,0,-5.1062104374,1.178235155
 2,-2.2669042128\H,0,-5.3910999745,-0.0120103874,-0.9851024988\H,0,-4.8
 022491864,1.6256744558,-0.5751081636\C,0,-2.4949681948,1.5011926606,-2
 .1417819688\H,0,-2.5581797945,2.4151671987,-1.5355925896\H,0,-1.439192
 6963,1.2543423496,-2.2905056076\H,0,-2.9470268155,1.7182167045,-3.1235
 087185\C,0,-2.7615550487,-1.8099058509,2.3602168802\H,0,-1.9348412568,
 -2.4398251216,2.0063636487\H,0,-2.363171924,-1.0332715688,3.0249058741
 \H,0,-3.4346430034,-2.4433708269,2.9604675034\C,0,-4.7258967581,-0.397
 6698749,1.8160428501\H,0,-5.3801620123,0.0592447303,1.0663116017\H,0,-
 5.3431141541,-1.0774632826,2.4269562809\H,0,-4.3518155763,0.3925943862
 ,2.4826523288\C,0,-4.1279790341,-2.3757247875,0.3622534425\H,0,-4.6355
 218329,-3.0848520923,1.0362415426\H,0,-4.86428942,-2.0418169305,-0.379
 6500829\H,0,-3.3250815275,-2.9215165302,-0.1561432634\O,0,-0.185218905
 1,-2.6339206096,-0.0814946058\C,0,0.0388804185,-0.6645192678,1.8836098
 042\H,0,-0.2506078366,-2.7409748387,-1.0486105173\O,0,0.1004481643,-0.
 6737245978,3.0421402482\\Version=ES64L-G16RevC.02\State=3-A\HF=-1998.9
 237199\S2=2.020895\S2-1=0.\S2A=2.000265\RMSD=3.306e-09\PG=C01 [X(C24H4
 5N1O3P2Ru1)]\\@
 The archive entry for this job was punched.


 CONTRAIWISE...CONTINUED TWEEDLEDEE, IF IT WAS SO, IT MIGHT BE,
 AND IF IT WERE SO, IT WOULD BE.....
 BUT AS IT ISN'T, IT AIN'T....
 THAT'S LOGIC.....
 ALICE THROUGH THE LOOKING GLASS
 Job cpu time:       3 days 15 hours 31 minutes  6.8 seconds.
 Elapsed time:       0 days  3 hours 45 minutes 53.6 seconds.
 File lengths (MBytes):  RWF=  21791 Int=      0 D2E=      0 Chk=   1759 Scr=      1
 Normal termination of Gaussian 16 at Thu Nov 28 17:29:11 2024.
