 Entering Gaussian System, Link 0=g16
 Input=tBut_Ru_T_Crossing_RRegion_Interpol_struc_2.5.gjf
 Output=tBut_Ru_T_Crossing_RRegion_Interpol_struc_2.5.log
 Initial command:
 /cluster/apps/g16/g16/l1.exe "/beegfs/do57cig/gauss2041400/Gau-78034.inp" -scrdir="/beegfs/do57cig/gauss2041400/"
 Default CPUs for threads: 0-23
 Default is to use a total of  24 processors:
                               24 via shared-memory
                                1 via Linda
 Entering Link 1 = /cluster/apps/g16/g16/l1.exe PID=     78035.
  
 Copyright (c) 1988-2017, Gaussian, Inc.  All Rights Reserved.
  
 This is part of the Gaussian(R) 16 program.  It is based on
 the Gaussian(R) 09 system (copyright 2009, Gaussian, Inc.),
 the Gaussian(R) 03 system (copyright 2003, Gaussian, Inc.),
 the Gaussian(R) 98 system (copyright 1998, Gaussian, Inc.),
 the Gaussian(R) 94 system (copyright 1995, Gaussian, Inc.),
 the Gaussian 92(TM) system (copyright 1992, Gaussian, Inc.),
 the Gaussian 90(TM) system (copyright 1990, Gaussian, Inc.),
 the Gaussian 88(TM) system (copyright 1988, Gaussian, Inc.),
 the Gaussian 86(TM) system (copyright 1986, Carnegie Mellon
 University), and the Gaussian 82(TM) system (copyright 1983,
 Carnegie Mellon University). Gaussian is a federally registered
 trademark of Gaussian, Inc.
  
 This software contains proprietary and confidential information,
 including trade secrets, belonging to Gaussian, Inc.
  
 This software is provided under written license and may be
 used, copied, transmitted, or stored only in accord with that
 written license.
  
 The following legend is applicable only to US Government
 contracts under FAR:
  
                    RESTRICTED RIGHTS LEGEND
  
 Use, reproduction and disclosure by the US Government is
 subject to restrictions as set forth in subparagraphs (a)
 and (c) of the Commercial Computer Software - Restricted
 Rights clause in FAR 52.227-19.
  
 Gaussian, Inc.
 340 Quinnipiac St., Bldg. 40, Wallingford CT 06492
  
  
 ---------------------------------------------------------------
 Warning -- This program may not be used in any manner that
 competes with the business of Gaussian, Inc. or will provide
 assistance to any competitor of Gaussian, Inc.  The licensee
 of this program is prohibited from giving any competitor of
 Gaussian, Inc. access to this program.  By using this program,
 the user acknowledges that Gaussian, Inc. is engaged in the
 business of creating and licensing software in the field of
 computational chemistry and represents and warrants to the
 licensee that it is not a competitor of Gaussian, Inc. and that
 it will not use this program in any manner prohibited above.
 ---------------------------------------------------------------
  

 Cite this work as:
 Gaussian 16, Revision B.01,
 M. J. Frisch, G. W. Trucks, H. B. Schlegel, G. E. Scuseria, 
 M. A. Robb, J. R. Cheeseman, G. Scalmani, V. Barone, 
 G. A. Petersson, H. Nakatsuji, X. Li, M. Caricato, A. V. Marenich, 
 J. Bloino, B. G. Janesko, R. Gomperts, B. Mennucci, H. P. Hratchian, 
 J. V. Ortiz, A. F. Izmaylov, J. L. Sonnenberg, D. Williams-Young, 
 F. Ding, F. Lipparini, F. Egidi, J. Goings, B. Peng, A. Petrone, 
 T. Henderson, D. Ranasinghe, V. G. Zakrzewski, J. Gao, N. Rega, 
 G. Zheng, W. Liang, M. Hada, M. Ehara, K. Toyota, R. Fukuda, 
 J. Hasegawa, M. Ishida, T. Nakajima, Y. Honda, O. Kitao, H. Nakai, 
 T. Vreven, K. Throssell, J. A. Montgomery, Jr., J. E. Peralta, 
 F. Ogliaro, M. J. Bearpark, J. J. Heyd, E. N. Brothers, K. N. Kudin, 
 V. N. Staroverov, T. A. Keith, R. Kobayashi, J. Normand, 
 K. Raghavachari, A. P. Rendell, J. C. Burant, S. S. Iyengar, 
 J. Tomasi, M. Cossi, J. M. Millam, M. Klene, C. Adamo, R. Cammi, 
 J. W. Ochterski, R. L. Martin, K. Morokuma, O. Farkas, 
 J. B. Foresman, and D. J. Fox, Gaussian, Inc., Wallingford CT, 2016.
 
 ******************************************
 Gaussian 16:  ES64L-G16RevB.01 20-Dec-2017
                25-Jan-2024 
 ******************************************
 %chk=tBut_Ru_T_Crossing_region_Interpol_struc_2.5.chk
 SetSPE:  set environment variable "MP_BIND" = "yes"
 SetSPE:  set environment variable "MP_BLIST" = "0,1,2,3,4,5,6,7,8,9,10,11,12,13,14,15,16,17,18,19,20,21,22,23"
 Default route: CacheSize=81920
 ----------------------------------------------------------------------
 # td=(triplets,nstates=10,conver=3) b3lyp scrf=(smd,solvent=water,iter
 ative) def2svp empiricaldispersion=gd3bj int=ultrafine scf=xqc
 ----------------------------------------------------------------------
 1/4=81920,38=1,172=1/1;
 2/4=81920,12=2,17=6,18=5,40=1/2;
 3/4=81920,5=43,7=101,11=9,25=1,30=1,70=32201,72=1,74=-5,75=-5,124=41,140=2/1,2,3,8;
 4/4=81920/1;
 5/4=81920,5=2,8=3,13=1,38=5,53=1/2,8;
 8/4=81920,6=1,10=1,108=10/1;
 9/4=81920,9=3,41=10,42=1,48=3,70=2/14;
 6/4=81920,7=2,8=2,9=2,10=2/1;
 99/4=81920,5=1,9=1/99;
 --------------------------------------------
 tBut_Ru_T_Crossing_region_Interpol_struc_2.5
 --------------------------------------------
 Symbolic Z-matrix:
 Charge =  0 Multiplicity = 1
 O                     0.00247  -0.44254  -1.99699 
 P                    -2.48949  -0.16189   0.0992 
 O                    -0.0251   -3.62684  -0.0004 
 N                     0.00034   1.53339  -0.00221 
 C                    -2.28188   1.46382   0.96914 
 H                    -3.20035   2.06563   0.92509 
 H                    -2.12302   1.18615   2.02447 
 O                    -0.00793  -0.44209   1.99303 
 P                     2.49109  -0.16758  -0.09688 
 C                    -1.09959   2.24923   0.45652 
 C                    -1.11423   3.6311    0.45534 
 H                    -2.00855   4.1436    0.81826 
 C                     0.00497   4.36846  -0.00377 
 H                     0.00668   5.45941  -0.00456 
 C                     1.12186   3.62695  -0.46177 
 H                     2.01787   4.13618  -0.82514 
 C                     1.10291   2.24509  -0.4613 
 C                     2.28309   1.45542  -0.97221 
 H                     3.20239   2.05625  -0.93224 
 H                     2.12194   1.17347  -2.02604 
 C                    -3.59833  -1.20122   1.24712 
 C                    -3.38691   0.24557  -1.53053 
 C                    -2.73884  -1.75272   2.39652 
 H                    -3.39262  -2.34099   3.06141 
 H                    -2.2787   -0.95586   2.99461 
 H                    -1.94696  -2.42018   2.02934 
 C                    -4.1574   -2.4016    0.46833 
 H                    -4.65035  -3.08522   1.17894 
 H                    -3.35572  -2.96416  -0.03508 
 H                    -4.90482  -2.11039  -0.28081 
 Ru                   -0.00456  -0.61266  -0.00212 
 C                    -4.73741  -0.37383   1.86385 
 H                    -5.33247  -1.03109   2.52019 
 H                    -5.41626   0.04921   1.11536 
 H                    -4.35072   0.44625   2.4863 
 C                    -3.28888  -0.96406  -2.47531 
 H                    -3.7218   -0.68978  -3.4519 
 H                    -3.83965  -1.83595  -2.10175 
 H                    -2.24241  -1.25454  -2.63776 
 C                    -2.66404   1.44191  -2.17663 
 H                    -3.10039   1.60716  -3.17583 
 H                    -1.59078   1.25673  -2.29754 
 H                    -2.80127   2.3647   -1.59724 
 C                    -4.85625   0.63928  -1.32833 
 H                    -5.2622    0.97659  -2.29704 
 H                    -4.96431   1.47166  -0.61708 
 H                    -5.47724  -0.19896  -0.98751 
 C                     3.59904  -1.20956  -1.24323 
 C                     3.38962   0.24643   1.53054 
 C                     4.16076  -2.40692  -0.46175 
 H                     4.65251  -3.09268  -1.17115 
 H                     3.36078  -2.96833   0.04563 
 H                     4.9098   -2.11242   0.28453 
 C                     4.73644  -0.38393  -1.86535 
 H                     5.33057  -1.04325  -2.52048 
 H                     5.41655   0.04208  -1.11964 
 H                     4.34824   0.43376  -2.48998 
 C                     2.73658  -1.76515  -2.38848 
 H                     3.38828  -2.35594  -3.05319 
 H                     2.27481  -0.97031  -2.98806 
 H                     1.94537  -2.43093  -2.01667 
 C                     3.29574  -0.96082   2.47877 
 H                     3.7285   -0.68252   3.45431 
 H                     3.84876  -1.83222   2.10743 
 H                     2.25019  -1.25389   2.64283 
 C                     2.66374   1.44224   2.17427 
 H                     3.09977   1.61097   3.17303 
 H                     1.59092   1.2543    2.29571 
 H                     2.7982    2.36411   1.5928 
 C                     4.85767   0.64331   1.32557 
 H                     5.26417   0.98441   2.29275 
 H                     4.96284   1.47385   0.61172 
 H                     5.48017  -0.19447   0.9863 
 C                    -0.01519  -2.46371  -0.00145 
 H                    -0.05891  -1.31314   2.40936 
 H                     0.03988  -1.31436  -2.4132 
 
 Stoichiometry    C24H45NO3P2Ru
 Framework group  C1[X(C24H45NO3P2Ru)]
 Deg. of freedom   222
 Full point group                 C1      NOp   1
 Largest Abelian subgroup         C1      NOp   1
 Largest concise Abelian subgroup C1      NOp   1
                         Standard orientation:                         
 ---------------------------------------------------------------------
 Center     Atomic      Atomic             Coordinates (Angstroms)
 Number     Number       Type             X           Y           Z
 ---------------------------------------------------------------------
      1          8           0        0.002258   -0.394641   -1.996448
      2         15           0       -2.488363   -0.113041    0.101208
      3          8           0       -0.024465   -3.578329    0.001121
      4          7           0        0.001616    1.581892   -0.002269
      5          6           0       -2.280003    1.512904    0.970524
      6          1           0       -3.198427    2.114819    0.926866
      7          1           0       -2.120517    1.235536    2.025833
      8          8           0       -0.005649   -0.392978    1.993572
      9         15           0        2.492093   -0.119415   -0.097980
     10          6           0       -1.097934    2.298013    0.456928
     11          6           0       -1.112398    3.679881    0.455333
     12          1           0       -2.006432    4.192602    0.818661
     13          6           0        0.006604    4.416966   -0.004699
     14          1           0        0.008447    5.507907   -0.005820
     15          6           0        1.123119    3.675171   -0.463171
     16          1           0        2.018963    4.184178   -0.827256
     17          6           0        1.103987    2.293316   -0.462268
     18          6           0        2.283757    1.503345   -0.973680
     19          1           0        3.203150    2.104072   -0.934464
     20          1           0        2.121906    1.221093   -2.027317
     21          6           0       -3.596608   -1.151887    1.250133
     22          6           0       -3.386750    0.294036   -1.528085
     23          6           0       -2.736467   -1.703139    2.399173
     24          1           0       -3.389906   -2.291133    3.064647
     25          1           0       -2.275859   -0.906160    2.996731
     26          1           0       -1.944902   -2.370812    2.031698
     27          6           0       -4.156315   -2.352433    0.472063
     28          1           0       -4.648913   -3.035777    1.183193
     29          1           0       -3.355028   -2.915246   -0.031677
     30          1           0       -4.904170   -2.061357   -0.276696
     31         44           0       -0.003552   -0.564152   -0.001530
     32          6           0       -4.735197   -0.324167    1.867328
     33          1           0       -5.329931   -0.981149    2.524242
     34          1           0       -5.414463    0.098729    1.119138
     35          1           0       -4.348024    0.496055    2.489282
     36          6           0       -3.289456   -0.915899   -2.472556
     37          1           0       -3.722952   -0.641860   -3.448959
     38          1           0       -3.840099   -1.787603   -2.098391
     39          1           0       -2.243125   -1.206560   -2.635576
     40          6           0       -2.664134    1.490085   -2.175003
     41          1           0       -3.101082    1.655089   -3.173979
     42          1           0       -1.590967    1.304732   -2.296523
     43          1           0       -2.800881    2.413073   -1.595808
     44          6           0       -4.855910    0.687990   -1.325082
     45          1           0       -5.262423    1.025049   -2.293648
     46          1           0       -4.963426    1.520602   -0.614021
     47          1           0       -5.476792   -0.150073   -0.983622
     48          6           0        3.599201   -1.161886   -1.244703
     49          6           0        3.391695    0.294976    1.528753
     50          6           0        4.161256   -2.359081   -0.463210
     51          1           0        4.652478   -3.045119   -1.172711
     52          1           0        3.361524   -2.920238    0.044841
     53          1           0        4.910799   -2.064446    0.282505
     54          6           0        4.736315   -0.336592   -1.867792
     55          1           0        5.329955   -0.996182   -2.523092
     56          1           0        5.416943    0.089560   -1.122637
     57          1           0        4.347828    0.480959   -2.492425
     58          6           0        2.735958   -1.717712   -2.389249
     59          1           0        3.387168   -2.308796   -3.054190
     60          1           0        2.273912   -0.922997   -2.988778
     61          1           0        1.944895   -2.383280   -2.016738
     62          6           0        3.298256   -0.911979    2.477410
     63          1           0        3.731658   -0.633427    3.452586
     64          1           0        3.850932   -1.783559    2.105987
     65          1           0        2.252774   -1.204861    2.642206
     66          6           0        2.666370    1.491070    2.172567
     67          1           0        3.103045    1.660051    3.171005
     68          1           0        1.593603    1.303306    2.294741
     69          1           0        2.800578    2.412750    1.590737
     70          6           0        4.859669    0.691612    1.322739
     71          1           0        5.266810    1.032956    2.289561
     72          1           0        4.964499    1.521918    0.608578
     73          1           0        5.481851   -0.146353    0.983334
     74          6           0       -0.014409   -2.415208   -0.000285
     75          1           0       -0.056475   -1.263894    2.410201
     76          1           0        0.039300   -1.266592   -2.412419
 ---------------------------------------------------------------------
 Rotational constants (GHZ):           0.1958214           0.1034298           0.0917219
 Standard basis: def2SVP (5D, 7F)
 There are   719 symmetry adapted cartesian basis functions of A   symmetry.
 There are   684 symmetry adapted basis functions of A   symmetry.
   684 basis functions,  1154 primitive gaussians,   719 cartesian basis functions
   133 alpha electrons      133 beta electrons
       nuclear repulsion energy      4488.6583470215 Hartrees.
 NAtoms=   76 NActive=   76 NUniq=   76 SFac= 1.00D+00 NAtFMM=   60 NAOKFM=T Big=T
 Integral buffers will be    131072 words long.
 Regular integral format.
 Two-electron integral symmetry is turned on.
 Nuclear repulsion after empirical dispersion term =     4488.4415117905 Hartrees.
 Force iterative solution in PCM.
 ------------------------------------------------------------------------------
 Polarizable Continuum Model (PCM)
 =================================
 Model                : PCM.
 Atomic radii         : SMD-Coulomb.
 Polarization charges : Total charges.
 Charge compensation  : None.
 Solution method      : Iterative solution.
 Cavity type          : VdW (van der Waals Surface) (Alpha=1.000).
 Cavity algorithm     : GePol (No added spheres)
                        Default sphere list used, NSphG=   76.
                        Lebedev-Laikov grids with approx.  5.0 points / Ang**2.
                        Smoothing algorithm: York/Karplus (Gamma=1.0000).
                        Polarization charges: spherical gaussians, with
                                              point-specific exponents (IZeta= 3).
                        Self-potential: point-specific (ISelfS= 7).
                        Self-field    : sphere-specific E.n sum rule (ISelfD= 2).
 Solvent              : Water, Eps=  78.355300 Eps(inf)=   1.777849
 ------------------------------------------------------------------------------
 ------------------------------------------------------------------------------
 Atomic radii for non-electrostatic terms: SMD-CDS.
 ------------------------------------------------------------------------------
 Nuclear repulsion after PCM non-electrostatic terms =     4488.4620665669 Hartrees.
 One-electron integrals computed using PRISM.
   1 Symmetry operations used in ECPInt.
 ECPInt:  NShTT=   54615 NPrTT=  190596 LenC2=   47836 LenP2D=  112984.
 LDataN:  DoStor=T MaxTD1= 7 Len=  274
 NBasis=   684 RedAO= T EigKep=  5.07D-04  NBF=   684
 NBsUse=   684 1.00D-06 EigRej= -1.00D+00 NBFU=   684
 Defaulting to unpruned grid for atomic number  44.
 ExpMin= 3.92D-02 ExpMax= 8.00D+03 ExpMxC= 1.20D+03 IAcc=3 IRadAn=         5 AccDes= 0.00D+00
 Harris functional with IExCor=  402 and IRadAn=       5 diagonalized for initial guess.
 HarFok:  IExCor=  402 AccDes= 0.00D+00 IRadAn=         5 IDoV= 1 UseB2=F ITyADJ=14
 ICtDFT=  3500011 ScaDFX=  1.000000  1.000000  1.000000  1.000000
 Defaulting to unpruned grid for atomic number  44.
 FoFCou: FMM=F IPFlag=           0 FMFlag=      100000 FMFlg1=        2001
         NFxFlg=           0 DoJE=T BraDBF=F KetDBF=T FulRan=T
         wScrn=  0.000000 ICntrl=       500 IOpCl=  0 I1Cent=   200000004 NGrid=           0
         NMat0=    1 NMatS0=      1 NMatT0=    0 NMatD0=    1 NMtDS0=    0 NMtDT0=    0
 Petite list used in FoFCou.
 Requested convergence on RMS density matrix=1.00D-08 within  32 cycles.
 Requested convergence on MAX density matrix=1.00D-06.
 Requested convergence on             energy=1.00D-06.
 No special actions if energy rises.
 Defaulting to unpruned grid for atomic number  44.
 Defaulting to unpruned grid for atomic number  44.
 Defaulting to unpruned grid for atomic number  44.
 Defaulting to unpruned grid for atomic number  44.
 Defaulting to unpruned grid for atomic number  44.
 Defaulting to unpruned grid for atomic number  44.
 Defaulting to unpruned grid for atomic number  44.
 Defaulting to unpruned grid for atomic number  44.
 Defaulting to unpruned grid for atomic number  44.
 Defaulting to unpruned grid for atomic number  44.
 Defaulting to unpruned grid for atomic number  44.
 Defaulting to unpruned grid for atomic number  44.
 Defaulting to unpruned grid for atomic number  44.
 Defaulting to unpruned grid for atomic number  44.
 Defaulting to unpruned grid for atomic number  44.
 Defaulting to unpruned grid for atomic number  44.
 Defaulting to unpruned grid for atomic number  44.
 Defaulting to unpruned grid for atomic number  44.
 Defaulting to unpruned grid for atomic number  44.
 Defaulting to unpruned grid for atomic number  44.
 Defaulting to unpruned grid for atomic number  44.
 Defaulting to unpruned grid for atomic number  44.
 Defaulting to unpruned grid for atomic number  44.
 Defaulting to unpruned grid for atomic number  44.
 QICG: NIter= 145, all vectors converged, nQ=   1 QEMax= 7.05D-07
 QICG: NIter= 147, all vectors converged, nQ=   1 QEMax= 8.62D-07
 QICG: NIter= 147, all vectors converged, nQ=   1 QEMax= 8.35D-07
 QICG: NIter= 150, all vectors converged, nQ=   1 QEMax= 7.29D-07
 QICG: NIter= 151, all vectors converged, nQ=   1 QEMax= 8.46D-07
 QICG: NIter= 147, all vectors converged, nQ=   1 QEMax= 8.52D-07
 EnCoef did     6 forward-backward iterations
 QICG: NIter= 148, all vectors converged, nQ=   1 QEMax= 8.26D-07
 QICG: NIter= 142, all vectors converged, nQ=   1 QEMax= 6.22D-07
 QICG: NIter= 137, all vectors converged, nQ=   1 QEMax= 8.62D-07
 QICG: NIter=  97, all vectors converged, nQ=   1 QEMax= 6.13D-07
 QICG: NIter= 126, all vectors converged, nQ=   1 QEMax= 8.77D-07
 QICG: NIter=  44, all vectors converged, nQ=   1 QEMax= 7.34D-07
 QICG: NIter=  25, all vectors converged, nQ=   1 QEMax= 9.47D-07
 QICG: NIter=  33, all vectors converged, nQ=   1 QEMax= 9.73D-07
 QICG: NIter=  15, all vectors converged, nQ=   1 QEMax= 9.76D-07
 QICG: NIter=  11, all vectors converged, nQ=   1 QEMax= 8.14D-07
 QICG: NIter=   8, all vectors converged, nQ=   1 QEMax= 7.95D-07
 QICG: NIter=   5, all vectors converged, nQ=   1 QEMax= 9.77D-07
 QICG: NIter=   2, all vectors converged, nQ=   1 QEMax= 9.92D-07
 Error on total polarization charges =  0.08217
 SCF Done:  E(RB3LYP) =  -1998.97844680     A.U. after   18 cycles
            NFock= 18  Conv=0.53D-08     -V/T= 2.0404
 SMD-CDS (non-electrostatic) energy       (kcal/mol) =      12.90
 (included in total energy above)
 QCSCF skips out because SCF is already converged.
 DoSCS=F DFT=T ScalE2(SS,OS)=  1.000000  1.000000
 ExpMin= 3.92D-02 ExpMax= 8.00D+03 ExpMxC= 1.20D+03 IAcc=3 IRadAn=         5 AccDes= 0.00D+00
 HarFok:  IExCor=  205 AccDes= 0.00D+00 IRadAn=         5 IDoV=-2 UseB2=F ITyADJ=14
 ICtDFT= 12500011 ScaDFX=  1.000000  1.000000  1.000000  1.000000
 Defaulting to unpruned grid for atomic number  44.
 GSVD:  LWork=       -2100 too small for GESVD, short by        9450 words or        9450 for optimal perf.
 Range of M.O.s used for correlation:    43   684
 NBasis=   684 NAE=   133 NBE=   133 NFC=    42 NFV=     0
 NROrb=    642 NOA=    91 NOB=    91 NVA=   551 NVB=   551

 **** Warning!!: The smallest alpha delta epsilon is  0.85168436D-01

 NEqPCM:  Using non-equilibrium solvation (IEInf=1, Eps=  78.3553, EpsInf=   1.7778)
 Orbital symmetries:
       Occupied  (A) (A) (A) (A) (A) (A) (A) (A) (A) (A) (A) (A)
                 (A) (A) (A) (A) (A) (A) (A) (A) (A) (A) (A) (A)
                 (A) (A) (A) (A) (A) (A) (A) (A) (A) (A) (A) (A)
                 (A) (A) (A) (A) (A) (A) (A) (A) (A) (A) (A) (A)
                 (A) (A) (A) (A) (A) (A) (A) (A) (A) (A) (A) (A)
                 (A) (A) (A) (A) (A) (A) (A) (A) (A) (A) (A) (A)
                 (A) (A) (A) (A) (A) (A) (A) (A) (A) (A) (A) (A)
                 (A) (A) (A) (A) (A) (A) (A) (A) (A) (A) (A) (A)
                 (A) (A) (A) (A) (A) (A) (A) (A) (A) (A) (A) (A)
                 (A) (A) (A) (A) (A) (A) (A) (A) (A) (A) (A) (A)
                 (A) (A) (A) (A) (A) (A) (A) (A) (A) (A) (A) (A)
                 (A)
       Virtual   (A) (A) (A) (A) (A) (A) (A) (A) (A) (A) (A) (A)
                 (A) (A) (A) (A) (A) (A) (A) (A) (A) (A) (A) (A)
                 (A) (A) (A) (A) (A) (A) (A) (A) (A) (A) (A) (A)
                 (A) (A) (A) (A) (A) (A) (A) (A) (A) (A) (A) (A)
                 (A) (A) (A) (A) (A) (A) (A) (A) (A) (A) (A) (A)
                 (A) (A) (A) (A) (A) (A) (A) (A) (A) (A) (A) (A)
                 (A) (A) (A) (A) (A) (A) (A) (A) (A) (A) (A) (A)
                 (A) (A) (A) (A) (A) (A) (A) (A) (A) (A) (A) (A)
                 (A) (A) (A) (A) (A) (A) (A) (A) (A) (A) (A) (A)
                 (A) (A) (A) (A) (A) (A) (A) (A) (A) (A) (A) (A)
                 (A) (A) (A) (A) (A) (A) (A) (A) (A) (A) (A) (A)
                 (A) (A) (A) (A) (A) (A) (A) (A) (A) (A) (A) (A)
                 (A) (A) (A) (A) (A) (A) (A) (A) (A) (A) (A) (A)
                 (A) (A) (A) (A) (A) (A) (A) (A) (A) (A) (A) (A)
                 (A) (A) (A) (A) (A) (A) (A) (A) (A) (A) (A) (A)
                 (A) (A) (A) (A) (A) (A) (A) (A) (A) (A) (A) (A)
                 (A) (A) (A) (A) (A) (A) (A) (A) (A) (A) (A) (A)
                 (A) (A) (A) (A) (A) (A) (A) (A) (A) (A) (A) (A)
                 (A) (A) (A) (A) (A) (A) (A) (A) (A) (A) (A) (A)
                 (A) (A) (A) (A) (A) (A) (A) (A) (A) (A) (A) (A)
                 (A) (A) (A) (A) (A) (A) (A) (A) (A) (A) (A) (A)
                 (A) (A) (A) (A) (A) (A) (A) (A) (A) (A) (A) (A)
                 (A) (A) (A) (A) (A) (A) (A) (A) (A) (A) (A) (A)
                 (A) (A) (A) (A) (A) (A) (A) (A) (A) (A) (A) (A)
                 (A) (A) (A) (A) (A) (A) (A) (A) (A) (A) (A) (A)
                 (A) (A) (A) (A) (A) (A) (A) (A) (A) (A) (A) (A)
                 (A) (A) (A) (A) (A) (A) (A) (A) (A) (A) (A) (A)
                 (A) (A) (A) (A) (A) (A) (A) (A) (A) (A) (A) (A)
                 (A) (A) (A) (A) (A) (A) (A) (A) (A) (A) (A) (A)
                 (A) (A) (A) (A) (A) (A) (A) (A) (A) (A) (A) (A)
                 (A) (A) (A) (A) (A) (A) (A) (A) (A) (A) (A) (A)
                 (A) (A) (A) (A) (A) (A) (A) (A) (A) (A) (A) (A)
                 (A) (A) (A) (A) (A) (A) (A) (A) (A) (A) (A) (A)
                 (A) (A) (A) (A) (A) (A) (A) (A) (A) (A) (A) (A)
                 (A) (A) (A) (A) (A) (A) (A) (A) (A) (A) (A) (A)
                 (A) (A) (A) (A) (A) (A) (A) (A) (A) (A) (A) (A)
                 (A) (A) (A) (A) (A) (A) (A) (A) (A) (A) (A) (A)
                 (A) (A) (A) (A) (A) (A) (A) (A) (A) (A) (A) (A)
                 (A) (A) (A) (A) (A) (A) (A) (A) (A) (A) (A) (A)
                 (A) (A) (A) (A) (A) (A) (A) (A) (A) (A) (A) (A)
                 (A) (A) (A) (A) (A) (A) (A) (A) (A) (A) (A) (A)
                 (A) (A) (A) (A) (A) (A) (A) (A) (A) (A) (A) (A)
                 (A) (A) (A) (A) (A) (A) (A) (A) (A) (A) (A) (A)
                 (A) (A) (A) (A) (A) (A) (A) (A) (A) (A) (A) (A)
                 (A) (A) (A) (A) (A) (A) (A) (A) (A) (A) (A) (A)
                 (A) (A) (A) (A) (A) (A) (A) (A) (A) (A) (A)
    40 initial guesses have been made.
 Convergence on wavefunction:    0.001000000000000
 Iteration     1 Dimension    40 NMult     0 NNew     40
 CISAX will form    40 AO SS matrices at one time.
 Defaulting to unpruned grid for atomic number  44.
 Defaulting to unpruned grid for atomic number  44.
 Defaulting to unpruned grid for atomic number  44.
 Defaulting to unpruned grid for atomic number  44.
 Defaulting to unpruned grid for atomic number  44.
 Defaulting to unpruned grid for atomic number  44.
 Defaulting to unpruned grid for atomic number  44.
 Defaulting to unpruned grid for atomic number  44.
 Defaulting to unpruned grid for atomic number  44.
 Defaulting to unpruned grid for atomic number  44.
 Defaulting to unpruned grid for atomic number  44.
 Defaulting to unpruned grid for atomic number  44.
 Defaulting to unpruned grid for atomic number  44.
 Defaulting to unpruned grid for atomic number  44.
 Defaulting to unpruned grid for atomic number  44.
 Defaulting to unpruned grid for atomic number  44.
 Defaulting to unpruned grid for atomic number  44.
 Defaulting to unpruned grid for atomic number  44.
 Defaulting to unpruned grid for atomic number  44.
 Defaulting to unpruned grid for atomic number  44.
 Defaulting to unpruned grid for atomic number  44.
 Defaulting to unpruned grid for atomic number  44.
 Defaulting to unpruned grid for atomic number  44.
 Defaulting to unpruned grid for atomic number  44.
 New state      2 was old state      4
 New state      3 was old state      2
 New state      4 was old state      3
 New state      5 was old state      6
 New state      6 was old state      7
 New state      7 was old state      9
 New state      8 was old state     12
 New state      9 was old state      5
 Iteration     2 Dimension    60 NMult    40 NNew     20
 New state      7 was old state      8
 New state      8 was old state      7
 New state     10 was old state     12
 Iteration     3 Dimension    80 NMult    60 NNew     20
 Iteration     4 Dimension    98 NMult    80 NNew     18
 Iteration     5 Dimension   114 NMult    98 NNew     16
 Iteration     6 Dimension   116 NMult   114 NNew      2
 ***********************************************************************
 Excited states from <AA,BB:AA,BB> singles matrix:
 ***********************************************************************
 
 Ground to excited state transition densities written to RWF  633
 Ground to excited state transition electric dipole moments (Au):
       state          X           Y           Z        Dip. S.      Osc.
         1        -0.0000     -0.0000     -0.0000      0.0000      0.0000
         2        -0.0000     -0.0000     -0.0000      0.0000      0.0000
         3        -0.0000     -0.0000     -0.0000      0.0000      0.0000
         4        -0.0000     -0.0000     -0.0000      0.0000      0.0000
         5        -0.0000     -0.0000     -0.0000      0.0000      0.0000
         6        -0.0000     -0.0000     -0.0000      0.0000      0.0000
         7        -0.0000     -0.0000     -0.0000      0.0000      0.0000
         8        -0.0000     -0.0000     -0.0000      0.0000      0.0000
         9        -0.0000     -0.0000     -0.0000      0.0000      0.0000
        10        -0.0000     -0.0000     -0.0000      0.0000      0.0000
 Ground to excited state transition velocity dipole moments (Au):
       state          X           Y           Z        Dip. S.      Osc.
         1         0.0000      0.0000      0.0000      0.0000      0.0000
         2         0.0000      0.0000      0.0000      0.0000      0.0000
         3         0.0000      0.0000      0.0000      0.0000      0.0000
         4         0.0000      0.0000      0.0000      0.0000      0.0000
         5         0.0000      0.0000      0.0000      0.0000      0.0000
         6         0.0000      0.0000      0.0000      0.0000      0.0000
         7         0.0000      0.0000      0.0000      0.0000      0.0000
         8         0.0000      0.0000      0.0000      0.0000      0.0000
         9         0.0000      0.0000      0.0000      0.0000      0.0000
        10         0.0000      0.0000      0.0000      0.0000      0.0000
 Ground to excited state transition magnetic dipole moments (Au):
       state          X           Y           Z
         1         0.0000      0.0000      0.0000
         2         0.0000      0.0000      0.0000
         3         0.0000      0.0000      0.0000
         4         0.0000      0.0000      0.0000
         5         0.0000      0.0000      0.0000
         6         0.0000      0.0000      0.0000
         7         0.0000      0.0000      0.0000
         8         0.0000      0.0000      0.0000
         9         0.0000      0.0000      0.0000
        10         0.0000      0.0000      0.0000
 Ground to excited state transition velocity quadrupole moments (Au):
       state          XX          YY          ZZ          XY          XZ          YZ
         1         0.0000      0.0000      0.0000      0.0000      0.0000      0.0000
         2         0.0000      0.0000      0.0000      0.0000      0.0000      0.0000
         3         0.0000      0.0000      0.0000      0.0000      0.0000      0.0000
         4         0.0000      0.0000      0.0000      0.0000      0.0000      0.0000
         5         0.0000      0.0000      0.0000      0.0000      0.0000      0.0000
         6         0.0000      0.0000      0.0000      0.0000      0.0000      0.0000
         7         0.0000      0.0000      0.0000      0.0000      0.0000      0.0000
         8         0.0000      0.0000      0.0000      0.0000      0.0000      0.0000
         9         0.0000      0.0000      0.0000      0.0000      0.0000      0.0000
        10         0.0000      0.0000      0.0000      0.0000      0.0000      0.0000
 <0|del|b> * <b|rxdel|0> + <0|del|b> * <b|delr+rdel|0>
 Rotatory Strengths (R) in cgs (10**-40 erg-esu-cm/Gauss)
       state          XX          YY          ZZ    R(velocity)    E-M Angle
         1         0.0000      0.0000      0.0000      0.0000       90.00
         2         0.0000      0.0000      0.0000      0.0000       90.00
         3         0.0000      0.0000      0.0000      0.0000       90.00
         4         0.0000      0.0000      0.0000      0.0000       90.00
         5         0.0000      0.0000      0.0000      0.0000       90.00
         6         0.0000      0.0000      0.0000      0.0000       90.00
         7         0.0000      0.0000      0.0000      0.0000       90.00
         8         0.0000      0.0000      0.0000      0.0000       90.00
         9         0.0000      0.0000      0.0000      0.0000       90.00
        10         0.0000      0.0000      0.0000      0.0000       90.00
 1/2[<0|r|b>*<b|rxdel|0> + (<0|rxdel|b>*<b|r|0>)*]
 Rotatory Strengths (R) in cgs (10**-40 erg-esu-cm/Gauss)
       state          XX          YY          ZZ     R(length)
         1         0.0000      0.0000      0.0000      0.0000
         2         0.0000      0.0000      0.0000      0.0000
         3         0.0000      0.0000      0.0000      0.0000
         4         0.0000      0.0000      0.0000      0.0000
         5         0.0000      0.0000      0.0000      0.0000
         6         0.0000      0.0000      0.0000      0.0000
         7         0.0000      0.0000      0.0000      0.0000
         8         0.0000      0.0000      0.0000      0.0000
         9         0.0000      0.0000      0.0000      0.0000
        10         0.0000      0.0000      0.0000      0.0000
  1/2[<0|del|b>*<b|r|0> + (<0|r|b>*<b|del|0>)*] (Au)
       state          X           Y           Z        Dip. S.   Osc.(frdel)
         1        -0.0000     -0.0000     -0.0000      0.0000      0.0000
         2        -0.0000     -0.0000     -0.0000      0.0000      0.0000
         3        -0.0000     -0.0000     -0.0000      0.0000      0.0000
         4        -0.0000     -0.0000     -0.0000      0.0000      0.0000
         5        -0.0000     -0.0000     -0.0000      0.0000      0.0000
         6        -0.0000     -0.0000     -0.0000      0.0000      0.0000
         7        -0.0000     -0.0000     -0.0000      0.0000      0.0000
         8        -0.0000     -0.0000     -0.0000      0.0000      0.0000
         9        -0.0000     -0.0000     -0.0000      0.0000      0.0000
        10        -0.0000     -0.0000     -0.0000      0.0000      0.0000

 Excitation energies and oscillator strengths:
 
 Excited State   1:      Triplet-A      1.4842 eV  835.35 nm  f=0.0000  <S**2>=2.000
     133 ->134         0.70594
 This state for optimization and/or second-order correction.
 Total Energy, E(TD-HF/TD-DFT) =  -1998.92390282    
 Copying the excited state density for this state as the 1-particle RhoCI density.
 
 Excited State   2:      Triplet-A      1.6188 eV  765.90 nm  f=0.0000  <S**2>=2.000
     133 ->135        -0.11368
     133 ->136         0.68454
 
 Excited State   3:      Triplet-A      2.4611 eV  503.78 nm  f=0.0000  <S**2>=2.000
     133 ->135         0.69667
     133 ->136         0.11323
 
 Excited State   4:      Triplet-A      2.7030 eV  458.69 nm  f=0.0000  <S**2>=2.000
     121 ->134         0.11225
     132 ->134         0.68457
 
 Excited State   5:      Triplet-A      2.8099 eV  441.24 nm  f=0.0000  <S**2>=2.000
     133 ->137        -0.34384
     133 ->138         0.51926
     133 ->139        -0.15119
     133 ->143         0.19917
     133 ->153         0.12178
 
 Excited State   6:      Triplet-A      2.8129 eV  440.77 nm  f=0.0000  <S**2>=2.000
     133 ->137         0.61049
     133 ->138         0.29948
     133 ->143         0.11100
 
 Excited State   7:      Triplet-A      3.0990 eV  400.07 nm  f=0.0000  <S**2>=2.000
     132 ->135        -0.10821
     132 ->136         0.61194
     133 ->139         0.30383
 
 Excited State   8:      Triplet-A      3.1499 eV  393.62 nm  f=0.0000  <S**2>=2.000
     132 ->136        -0.30995
     133 ->138         0.16387
     133 ->139         0.60149
 
 Excited State   9:      Triplet-A      3.3447 eV  370.69 nm  f=0.0000  <S**2>=2.000
     131 ->134         0.69672
 
 Excited State  10:      Triplet-A      3.5264 eV  351.58 nm  f=0.0000  <S**2>=2.000
     121 ->134        -0.13392
     128 ->135        -0.10694
     130 ->134        -0.16875
     132 ->137         0.63210
 SavETr:  write IOETrn=   770 NScale= 10 NData=  16 NLR=1 NState=   10 LETran=     190.

 **********************************************************************

            Population analysis using the SCF Density.

 **********************************************************************

 Orbital symmetries:
       Occupied  (A) (A) (A) (A) (A) (A) (A) (A) (A) (A) (A) (A)
                 (A) (A) (A) (A) (A) (A) (A) (A) (A) (A) (A) (A)
                 (A) (A) (A) (A) (A) (A) (A) (A) (A) (A) (A) (A)
                 (A) (A) (A) (A) (A) (A) (A) (A) (A) (A) (A) (A)
                 (A) (A) (A) (A) (A) (A) (A) (A) (A) (A) (A) (A)
                 (A) (A) (A) (A) (A) (A) (A) (A) (A) (A) (A) (A)
                 (A) (A) (A) (A) (A) (A) (A) (A) (A) (A) (A) (A)
                 (A) (A) (A) (A) (A) (A) (A) (A) (A) (A) (A) (A)
                 (A) (A) (A) (A) (A) (A) (A) (A) (A) (A) (A) (A)
                 (A) (A) (A) (A) (A) (A) (A) (A) (A) (A) (A) (A)
                 (A) (A) (A) (A) (A) (A) (A) (A) (A) (A) (A) (A)
                 (A)
       Virtual   (A) (A) (A) (A) (A) (A) (A) (A) (A) (A) (A) (A)
                 (A) (A) (A) (A) (A) (A) (A) (A) (A) (A) (A) (A)
                 (A) (A) (A) (A) (A) (A) (A) (A) (A) (A) (A) (A)
                 (A) (A) (A) (A) (A) (A) (A) (A) (A) (A) (A) (A)
                 (A) (A) (A) (A) (A) (A) (A) (A) (A) (A) (A) (A)
                 (A) (A) (A) (A) (A) (A) (A) (A) (A) (A) (A) (A)
                 (A) (A) (A) (A) (A) (A) (A) (A) (A) (A) (A) (A)
                 (A) (A) (A) (A) (A) (A) (A) (A) (A) (A) (A) (A)
                 (A) (A) (A) (A) (A) (A) (A) (A) (A) (A) (A) (A)
                 (A) (A) (A) (A) (A) (A) (A) (A) (A) (A) (A) (A)
                 (A) (A) (A) (A) (A) (A) (A) (A) (A) (A) (A) (A)
                 (A) (A) (A) (A) (A) (A) (A) (A) (A) (A) (A) (A)
                 (A) (A) (A) (A) (A) (A) (A) (A) (A) (A) (A) (A)
                 (A) (A) (A) (A) (A) (A) (A) (A) (A) (A) (A) (A)
                 (A) (A) (A) (A) (A) (A) (A) (A) (A) (A) (A) (A)
                 (A) (A) (A) (A) (A) (A) (A) (A) (A) (A) (A) (A)
                 (A) (A) (A) (A) (A) (A) (A) (A) (A) (A) (A) (A)
                 (A) (A) (A) (A) (A) (A) (A) (A) (A) (A) (A) (A)
                 (A) (A) (A) (A) (A) (A) (A) (A) (A) (A) (A) (A)
                 (A) (A) (A) (A) (A) (A) (A) (A) (A) (A) (A) (A)
                 (A) (A) (A) (A) (A) (A) (A) (A) (A) (A) (A) (A)
                 (A) (A) (A) (A) (A) (A) (A) (A) (A) (A) (A) (A)
                 (A) (A) (A) (A) (A) (A) (A) (A) (A) (A) (A) (A)
                 (A) (A) (A) (A) (A) (A) (A) (A) (A) (A) (A) (A)
                 (A) (A) (A) (A) (A) (A) (A) (A) (A) (A) (A) (A)
                 (A) (A) (A) (A) (A) (A) (A) (A) (A) (A) (A) (A)
                 (A) (A) (A) (A) (A) (A) (A) (A) (A) (A) (A) (A)
                 (A) (A) (A) (A) (A) (A) (A) (A) (A) (A) (A) (A)
                 (A) (A) (A) (A) (A) (A) (A) (A) (A) (A) (A) (A)
                 (A) (A) (A) (A) (A) (A) (A) (A) (A) (A) (A) (A)
                 (A) (A) (A) (A) (A) (A) (A) (A) (A) (A) (A) (A)
                 (A) (A) (A) (A) (A) (A) (A) (A) (A) (A) (A) (A)
                 (A) (A) (A) (A) (A) (A) (A) (A) (A) (A) (A) (A)
                 (A) (A) (A) (A) (A) (A) (A) (A) (A) (A) (A) (A)
                 (A) (A) (A) (A) (A) (A) (A) (A) (A) (A) (A) (A)
                 (A) (A) (A) (A) (A) (A) (A) (A) (A) (A) (A) (A)
                 (A) (A) (A) (A) (A) (A) (A) (A) (A) (A) (A) (A)
                 (A) (A) (A) (A) (A) (A) (A) (A) (A) (A) (A) (A)
                 (A) (A) (A) (A) (A) (A) (A) (A) (A) (A) (A) (A)
                 (A) (A) (A) (A) (A) (A) (A) (A) (A) (A) (A) (A)
                 (A) (A) (A) (A) (A) (A) (A) (A) (A) (A) (A) (A)
                 (A) (A) (A) (A) (A) (A) (A) (A) (A) (A) (A) (A)
                 (A) (A) (A) (A) (A) (A) (A) (A) (A) (A) (A) (A)
                 (A) (A) (A) (A) (A) (A) (A) (A) (A) (A) (A) (A)
                 (A) (A) (A) (A) (A) (A) (A) (A) (A) (A) (A) (A)
                 (A) (A) (A) (A) (A) (A) (A) (A) (A) (A) (A)
 The electronic state is 1-A.
 Alpha  occ. eigenvalues --  -77.06925 -77.06886 -19.17376 -19.04764 -19.04706
 Alpha  occ. eigenvalues --  -14.36094 -10.25593 -10.24535 -10.24531 -10.21493
 Alpha  occ. eigenvalues --  -10.20230 -10.20219 -10.19942 -10.19908 -10.19876
 Alpha  occ. eigenvalues --  -10.19873 -10.19162 -10.19154 -10.17286 -10.17281
 Alpha  occ. eigenvalues --  -10.17107 -10.17101 -10.17067 -10.17056 -10.16749
 Alpha  occ. eigenvalues --  -10.16739 -10.16598 -10.16541 -10.16468 -10.16425
 Alpha  occ. eigenvalues --   -6.56105  -6.56072  -4.72740  -4.72707  -4.72672
 Alpha  occ. eigenvalues --   -4.72640  -4.72377  -4.72342  -2.98614  -1.83765
 Alpha  occ. eigenvalues --   -1.81937  -1.81698  -1.07930  -0.94182  -0.87432
 Alpha  occ. eigenvalues --   -0.86476  -0.81836  -0.81255  -0.79660  -0.79658
 Alpha  occ. eigenvalues --   -0.79088  -0.78984  -0.73330  -0.69798  -0.67628
 Alpha  occ. eigenvalues --   -0.67610  -0.67137  -0.67119  -0.66612  -0.66583
 Alpha  occ. eigenvalues --   -0.66305  -0.66277  -0.63892  -0.62072  -0.59453
 Alpha  occ. eigenvalues --   -0.58964  -0.53771  -0.53748  -0.53293  -0.51086
 Alpha  occ. eigenvalues --   -0.51032  -0.49789  -0.49219  -0.46467  -0.46374
 Alpha  occ. eigenvalues --   -0.45243  -0.44958  -0.44144  -0.43947  -0.43915
 Alpha  occ. eigenvalues --   -0.43873  -0.43709  -0.43181  -0.43133  -0.42465
 Alpha  occ. eigenvalues --   -0.42246  -0.42131  -0.42003  -0.41900  -0.41780
 Alpha  occ. eigenvalues --   -0.41327  -0.41063  -0.40451  -0.39672  -0.39062
 Alpha  occ. eigenvalues --   -0.38678  -0.38614  -0.38033  -0.37725  -0.37038
 Alpha  occ. eigenvalues --   -0.36984  -0.36945  -0.36881  -0.36860  -0.36320
 Alpha  occ. eigenvalues --   -0.35680  -0.35565  -0.35441  -0.35238  -0.34427
 Alpha  occ. eigenvalues --   -0.34105  -0.33465  -0.33365  -0.32817  -0.32579
 Alpha  occ. eigenvalues --   -0.32270  -0.32041  -0.31919  -0.31706  -0.31186
 Alpha  occ. eigenvalues --   -0.29271  -0.29062  -0.28843  -0.28613  -0.28504
 Alpha  occ. eigenvalues --   -0.27222  -0.25798  -0.25549  -0.25268  -0.22414
 Alpha  occ. eigenvalues --   -0.20402  -0.18795  -0.13860
 Alpha virt. eigenvalues --   -0.05344  -0.02041   0.00022   0.01776   0.02883
 Alpha virt. eigenvalues --    0.02947   0.05423   0.06280   0.06561   0.07324
 Alpha virt. eigenvalues --    0.07603   0.08254   0.08275   0.08318   0.08477
 Alpha virt. eigenvalues --    0.08768   0.09479   0.10003   0.10381   0.10571
 Alpha virt. eigenvalues --    0.10906   0.11152   0.11649   0.11766   0.11989
 Alpha virt. eigenvalues --    0.12304   0.12530   0.13060   0.13477   0.13524
 Alpha virt. eigenvalues --    0.13816   0.14379   0.14400   0.14640   0.14859
 Alpha virt. eigenvalues --    0.14964   0.15521   0.15738   0.16585   0.16724
 Alpha virt. eigenvalues --    0.16929   0.17379   0.17515   0.17534   0.17932
 Alpha virt. eigenvalues --    0.17955   0.18183   0.18487   0.18822   0.19343
 Alpha virt. eigenvalues --    0.20289   0.20379   0.20458   0.21089   0.21100
 Alpha virt. eigenvalues --    0.21658   0.21687   0.21882   0.22102   0.22297
 Alpha virt. eigenvalues --    0.22844   0.23211   0.24116   0.24351   0.24469
 Alpha virt. eigenvalues --    0.25238   0.25586   0.25628   0.25812   0.26275
 Alpha virt. eigenvalues --    0.26517   0.27812   0.27900   0.29304   0.29457
 Alpha virt. eigenvalues --    0.30147   0.30766   0.32191   0.33203   0.33625
 Alpha virt. eigenvalues --    0.33823   0.35632   0.37115   0.38273   0.39275
 Alpha virt. eigenvalues --    0.39928   0.40109   0.40601   0.41074   0.41656
 Alpha virt. eigenvalues --    0.41709   0.42699   0.43404   0.43619   0.43814
 Alpha virt. eigenvalues --    0.44201   0.45080   0.45155   0.45264   0.46303
 Alpha virt. eigenvalues --    0.46413   0.47268   0.47686   0.47784   0.49733
 Alpha virt. eigenvalues --    0.49903   0.50374   0.50987   0.52012   0.53250
 Alpha virt. eigenvalues --    0.53493   0.54066   0.54125   0.54391   0.55064
 Alpha virt. eigenvalues --    0.55432   0.55791   0.56663   0.57578   0.57775
 Alpha virt. eigenvalues --    0.57882   0.57945   0.59118   0.59591   0.59815
 Alpha virt. eigenvalues --    0.60026   0.60256   0.60794   0.61046   0.61693
 Alpha virt. eigenvalues --    0.62160   0.62583   0.62986   0.63072   0.63567
 Alpha virt. eigenvalues --    0.63722   0.64243   0.64499   0.64535   0.64852
 Alpha virt. eigenvalues --    0.64933   0.65571   0.65669   0.65831   0.65927
 Alpha virt. eigenvalues --    0.66428   0.66458   0.66727   0.67118   0.67467
 Alpha virt. eigenvalues --    0.67623   0.68037   0.68171   0.68506   0.68642
 Alpha virt. eigenvalues --    0.69257   0.69393   0.69648   0.69668   0.69927
 Alpha virt. eigenvalues --    0.70123   0.70302   0.70587   0.70701   0.71023
 Alpha virt. eigenvalues --    0.71234   0.71566   0.71914   0.72140   0.72591
 Alpha virt. eigenvalues --    0.72990   0.73326   0.73539   0.73602   0.73805
 Alpha virt. eigenvalues --    0.74161   0.74453   0.74567   0.74922   0.75045
 Alpha virt. eigenvalues --    0.75586   0.75897   0.76102   0.76641   0.76694
 Alpha virt. eigenvalues --    0.77219   0.77888   0.78232   0.78440   0.78938
 Alpha virt. eigenvalues --    0.79050   0.79643   0.80437   0.80472   0.80661
 Alpha virt. eigenvalues --    0.81105   0.81833   0.82090   0.82403   0.83007
 Alpha virt. eigenvalues --    0.83214   0.83383   0.83910   0.84120   0.84560
 Alpha virt. eigenvalues --    0.84687   0.85281   0.86349   0.86959   0.88179
 Alpha virt. eigenvalues --    0.88529   0.89028   0.90083   0.90292   0.91634
 Alpha virt. eigenvalues --    0.91782   0.92086   0.92581   0.93882   0.94518
 Alpha virt. eigenvalues --    0.95958   0.96843   0.97128   0.99345   0.99387
 Alpha virt. eigenvalues --    1.01081   1.02001   1.02971   1.03303   1.04236
 Alpha virt. eigenvalues --    1.04806   1.05608   1.06205   1.06687   1.07112
 Alpha virt. eigenvalues --    1.08258   1.08924   1.09896   1.11301   1.11445
 Alpha virt. eigenvalues --    1.12242   1.12347   1.14386   1.15383   1.15520
 Alpha virt. eigenvalues --    1.16370   1.17733   1.18799   1.18987   1.19462
 Alpha virt. eigenvalues --    1.20156   1.20853   1.21088   1.21205   1.22377
 Alpha virt. eigenvalues --    1.23260   1.23685   1.24277   1.24421   1.24925
 Alpha virt. eigenvalues --    1.25533   1.27115   1.27474   1.27946   1.28211
 Alpha virt. eigenvalues --    1.29515   1.29933   1.30690   1.31211   1.31828
 Alpha virt. eigenvalues --    1.33281   1.33575   1.35065   1.35691   1.38049
 Alpha virt. eigenvalues --    1.39943   1.41699   1.43102   1.44072   1.44773
 Alpha virt. eigenvalues --    1.45775   1.49336   1.50210   1.50797   1.51646
 Alpha virt. eigenvalues --    1.51695   1.52640   1.52995   1.53044   1.53525
 Alpha virt. eigenvalues --    1.54346   1.54684   1.55256   1.55657   1.55874
 Alpha virt. eigenvalues --    1.56244   1.56323   1.56671   1.57682   1.57836
 Alpha virt. eigenvalues --    1.57959   1.57993   1.58575   1.58997   1.59074
 Alpha virt. eigenvalues --    1.60047   1.60317   1.60765   1.61204   1.61708
 Alpha virt. eigenvalues --    1.61786   1.62244   1.63826   1.63942   1.64932
 Alpha virt. eigenvalues --    1.65007   1.66937   1.67559   1.68384   1.68757
 Alpha virt. eigenvalues --    1.69593   1.69721   1.70225   1.71845   1.72820
 Alpha virt. eigenvalues --    1.72871   1.73147   1.73686   1.75047   1.75343
 Alpha virt. eigenvalues --    1.76042   1.76257   1.77422   1.77572   1.77689
 Alpha virt. eigenvalues --    1.77859   1.78696   1.78839   1.79215   1.79565
 Alpha virt. eigenvalues --    1.79906   1.80825   1.81190   1.81630   1.82075
 Alpha virt. eigenvalues --    1.82396   1.82564   1.83215   1.83347   1.83619
 Alpha virt. eigenvalues --    1.84076   1.84442   1.84476   1.85030   1.85077
 Alpha virt. eigenvalues --    1.85937   1.86065   1.86697   1.87088   1.87600
 Alpha virt. eigenvalues --    1.87777   1.88172   1.89037   1.89694   1.90816
 Alpha virt. eigenvalues --    1.90991   1.91234   1.91327   1.91436   1.92020
 Alpha virt. eigenvalues --    1.92660   1.92825   1.93527   1.93857   1.94040
 Alpha virt. eigenvalues --    1.94426   1.94557   1.95114   1.95366   1.95575
 Alpha virt. eigenvalues --    1.95820   1.96154   1.96572   1.97494   1.97531
 Alpha virt. eigenvalues --    1.98177   1.98280   1.99030   1.99680   2.00272
 Alpha virt. eigenvalues --    2.00702   2.00730   2.01897   2.01970   2.02174
 Alpha virt. eigenvalues --    2.02859   2.03005   2.03351   2.03928   2.04871
 Alpha virt. eigenvalues --    2.05454   2.07135   2.08336   2.08598   2.08997
 Alpha virt. eigenvalues --    2.10569   2.12957   2.14422   2.15632   2.16613
 Alpha virt. eigenvalues --    2.17115   2.17645   2.17956   2.17986   2.18164
 Alpha virt. eigenvalues --    2.18222   2.18902   2.19276   2.19814   2.20459
 Alpha virt. eigenvalues --    2.20588   2.21460   2.21662   2.22047   2.22972
 Alpha virt. eigenvalues --    2.23366   2.24136   2.24410   2.24679   2.25638
 Alpha virt. eigenvalues --    2.26018   2.26836   2.29124   2.29857   2.29894
 Alpha virt. eigenvalues --    2.32385   2.34575   2.35785   2.38014   2.38345
 Alpha virt. eigenvalues --    2.38938   2.39163   2.39392   2.40818   2.41115
 Alpha virt. eigenvalues --    2.41217   2.41691   2.42261   2.42454   2.43204
 Alpha virt. eigenvalues --    2.43551   2.44143   2.45571   2.46253   2.47131
 Alpha virt. eigenvalues --    2.47995   2.49064   2.49078   2.51109   2.51720
 Alpha virt. eigenvalues --    2.55681   2.55792   2.55857   2.56378   2.56583
 Alpha virt. eigenvalues --    2.56657   2.56870   2.57214   2.57369   2.59057
 Alpha virt. eigenvalues --    2.61835   2.62481   2.62546   2.62898   2.63057
 Alpha virt. eigenvalues --    2.63569   2.63781   2.64105   2.64388   2.64487
 Alpha virt. eigenvalues --    2.64696   2.64752   2.64996   2.65310   2.65516
 Alpha virt. eigenvalues --    2.66872   2.67830   2.70799   2.72873   2.72961
 Alpha virt. eigenvalues --    2.74078   2.74218   2.74550   2.77083   2.78694
 Alpha virt. eigenvalues --    2.84051   2.84623   2.84671   2.86747   2.87596
 Alpha virt. eigenvalues --    2.87615   2.87839   2.88792   2.89350   2.89543
 Alpha virt. eigenvalues --    2.90161   2.90342   2.91055   2.91472   2.91957
 Alpha virt. eigenvalues --    2.93269   2.93802   2.94444   2.94716   2.95068
 Alpha virt. eigenvalues --    2.95364   2.96226   2.96759   2.96920   2.97130
 Alpha virt. eigenvalues --    2.97507   2.97785   2.98827   2.98963   2.99965
 Alpha virt. eigenvalues --    3.01339   3.02181   3.02328   3.02406   3.04494
 Alpha virt. eigenvalues --    3.05634   3.06039   3.06865   3.07283   3.08618
 Alpha virt. eigenvalues --    3.08863   3.09052   3.09822   3.09870   3.11384
 Alpha virt. eigenvalues --    3.11995   3.13316   3.14323   3.20141   3.20399
 Alpha virt. eigenvalues --    3.32441   3.55170   3.73541   3.85218   3.86033
 Alpha virt. eigenvalues --   45.36950
          Condensed to atoms (all electrons):
 Mulliken charges:
               1
     1  O   -0.504002
     2  P    0.317975
     3  O   -0.159693
     4  N   -0.228349
     5  C    0.010960
     6  H    0.057069
     7  H    0.094981
     8  O   -0.505970
     9  P    0.315837
    10  C    0.043005
    11  C   -0.019557
    12  H    0.015008
    13  C    0.074820
    14  H    0.031628
    15  C   -0.019273
    16  H    0.015040
    17  C    0.042592
    18  C    0.010986
    19  H    0.056891
    20  H    0.094926
    21  C   -0.393456
    22  C   -0.365431
    23  C    0.086035
    24  H    0.004752
    25  H    0.016300
    26  H    0.026510
    27  C    0.066683
    28  H    0.012258
    29  H    0.029493
    30  H    0.034117
    31  Ru  -0.217316
    32  C    0.081081
    33  H    0.010863
    34  H    0.009404
    35  H    0.020505
    36  C    0.082103
    37  H    0.005081
    38  H    0.003850
    39  H    0.007329
    40  C    0.064481
    41  H    0.006170
    42  H    0.040547
    43  H    0.012331
    44  C    0.080480
    45  H    0.006065
    46  H    0.025707
    47  H    0.029005
    48  C   -0.393836
    49  C   -0.370541
    50  C    0.066722
    51  H    0.012216
    52  H    0.029486
    53  H    0.034143
    54  C    0.081202
    55  H    0.010751
    56  H    0.009405
    57  H    0.020404
    58  C    0.086413
    59  H    0.004627
    60  H    0.016026
    61  H    0.026678
    62  C    0.081989
    63  H    0.006119
    64  H    0.004822
    65  H    0.005919
    66  C    0.064221
    67  H    0.007012
    68  H    0.039995
    69  H    0.013256
    70  C    0.080940
    71  H    0.006343
    72  H    0.025808
    73  H    0.029270
    74  C    0.090200
    75  H    0.190466
    76  H    0.190124
 Sum of Mulliken charges =  -0.00000
 Mulliken charges with hydrogens summed into heavy atoms:
               1
     1  O   -0.313878
     2  P    0.317975
     3  O   -0.159693
     4  N   -0.228349
     5  C    0.163011
     8  O   -0.315503
     9  P    0.315837
    10  C    0.043005
    11  C   -0.004549
    13  C    0.106448
    15  C   -0.004233
    17  C    0.042592
    18  C    0.162803
    21  C   -0.393456
    22  C   -0.365431
    23  C    0.133597
    27  C    0.142551
    31  Ru  -0.217316
    32  C    0.121853
    36  C    0.098363
    40  C    0.123528
    44  C    0.141257
    48  C   -0.393836
    49  C   -0.370541
    50  C    0.142567
    54  C    0.121763
    58  C    0.133744
    62  C    0.098849
    66  C    0.124484
    70  C    0.142360
    74  C    0.090200
 Electronic spatial extent (au):  <R**2>=          13755.5624
 Charge=             -0.0000 electrons
 Dipole moment (field-independent basis, Debye):
    X=             -0.0054    Y=              7.1545    Z=             -0.0025  Tot=              7.1545
 Quadrupole moment (field-independent basis, Debye-Ang):
   XX=           -178.2316   YY=           -208.1859   ZZ=           -232.2871
   XY=             -0.0508   XZ=             -7.1194   YZ=              0.0008
 Traceless Quadrupole moment (field-independent basis, Debye-Ang):
   XX=             28.0033   YY=             -1.9510   ZZ=            -26.0523
   XY=             -0.0508   XZ=             -7.1194   YZ=              0.0008
 Octapole moment (field-independent basis, Debye-Ang**2):
  XXX=              0.5759  YYY=            118.8633  ZZZ=              0.1514  XYY=              0.5053
  XXY=             -7.5820  XXZ=              0.4729  XZZ=             -0.1982  YZZ=            -28.2641
  YYZ=              0.0237  XYZ=             -3.0446
 Hexadecapole moment (field-independent basis, Debye-Ang**3):
 XXXX=         -10807.9516 YYYY=          -4187.9741 ZZZZ=          -3124.1129 XXXY=              0.4408
 XXXZ=            -41.3109 YYYX=             -0.8915 YYYZ=             -0.1590 ZZZX=             -9.8144
 ZZZY=              0.2486 XXYY=          -2512.8347 XXZZ=          -2324.6339 YYZZ=          -1262.9132
 XXYZ=             -0.1519 YYXZ=            -71.2180 ZZXY=              0.5561
 N-N= 4.488462066567D+03 E-N=-1.363468199303D+04  KE= 1.921392301419D+03
 1\1\GINC-NODE003\SP\RB3LYP TD-FC\def2SVP\C24H45N1O3P2Ru1\DO57CIG\25-Ja
 n-2024\0\\# td=(triplets,nstates=10,conver=3) b3lyp scrf=(smd,solvent=
 water,iterative) def2svp empiricaldispersion=gd3bj int=ultrafine scf=x
 qc\\tBut_Ru_T_Crossing_region_Interpol_struc_2.5\\0,1\O,0,0.00247197,-
 0.44253635,-1.99698516\P,0,-2.48949413,-0.1618871,0.09919912\O,0,-0.02
 509978,-3.62683569,-0.00040338\N,0,0.00033614,1.53338867,-0.00220535\C
 ,0,-2.28188172,1.46381892,0.96914066\H,0,-3.20035371,2.06563248,0.9250
 9261\H,0,-2.12302016,1.18614964,2.02446516\O,0,-0.00792773,-0.4420899,
 1.99302957\P,0,2.491086,-0.16757652,-0.09687788\C,0,-1.09958971,2.2492
 328,0.45652283\C,0,-1.11422668,3.63109901,0.45534003\H,0,-2.00855092,4
 .14359707,0.81826468\C,0,0.00497024,4.36846421,-0.00376865\H,0,0.00667
 779,5.45940573,-0.00455543\C,0,1.12186472,3.62694891,-0.46176887\H,0,2
 .01787236,4.13617893,-0.82513812\C,0,1.102905,2.24509084,-0.46129874\C
 ,0,2.28309365,1.45542358,-0.97221351\H,0,3.20238648,2.05625402,-0.9322
 4055\H,0,2.12193708,1.17347291,-2.0260373\C,0,-3.59832715,-1.2012219,1
 .24711542\C,0,-3.38691355,0.24557416,-1.53053006\C,0,-2.73883527,-1.75
 271596,2.39652413\H,0,-3.39261578,-2.34099423,3.06141128\H,0,-2.278700
 48,-0.95586112,2.99461262\H,0,-1.94695662,-2.42017786,2.02934126\C,0,-
 4.1573971,-2.40160071,0.46833018\H,0,-4.65035327,-3.08522312,1.1789438
 8\H,0,-3.35572486,-2.96415951,-0.03508033\H,0,-4.90482022,-2.1103902,-
 0.28080715\Ru,0,-0.00456271,-0.61265518,-0.00212325\C,0,-4.73740547,-0
 .3738325,1.8638503\H,0,-5.33246662,-1.03108873,2.52019254\H,0,-5.41625
 647,0.04920661,1.11536479\H,0,-4.35072325,0.44624863,2.48629625\C,0,-3
 .28887809,-0.96406107,-2.47530944\H,0,-3.7217979,-0.68977883,-3.451899
 35\H,0,-3.83964547,-1.83594817,-2.10175388\H,0,-2.24240958,-1.25454139
 ,-2.6377633\C,0,-2.66404432,1.44191039,-2.17663279\H,0,-3.10038853,1.6
 0716459,-3.17583105\H,0,-1.59077758,1.25672841,-2.29753814\H,0,-2.8012
 688,2.36470455,-1.59724199\C,0,-4.85625006,0.63928285,-1.32832548\H,0,
 -5.26219961,0.97658583,-2.2970429\H,0,-4.96431467,1.47166442,-0.617078
 59\H,0,-5.4772406,-0.19896269,-0.98750944\C,0,3.59904098,-1.20955991,-
 1.24322624\C,0,3.38961899,0.24643143,1.53054283\C,0,4.16075784,-2.4069
 2219,-0.46174663\H,0,4.65250903,-3.09268278,-1.17115002\H,0,3.3607789,
 -2.96833463,0.0456335\H,0,4.90979709,-2.11242096,0.28452599\C,0,4.7364
 4059,-0.38393335,-1.86535328\H,0,5.33057311,-1.04324991,-2.52048346\H,
 0,5.41654934,0.04207576,-1.11964288\H,0,4.34824175,0.43375918,-2.48997
 987\C,0,2.73658279,-1.7651452,-2.38848048\H,0,3.38828264,-2.35594475,-
 3.05319451\H,0,2.27481166,-0.97030513,-2.98805609\H,0,1.94537061,-2.43
 092588,-2.01666751\C,0,3.29573928,-0.96082489,2.47877405\H,0,3.7284961
 5,-0.68251592,3.45430503\H,0,3.84875596,-1.83222258,2.10743073\H,0,2.2
 5019069,-1.25388777,2.64282704\C,0,2.66374265,1.44223772,2.17426841\H,
 0,3.0997717,1.61096948,3.1730304\H,0,1.59092274,1.25430289,2.29571393\
 H,0,2.79819831,2.36411212,1.59280257\C,0,4.85767254,0.643313,1.3255674
 5\H,0,5.26416576,0.98441366,2.29274701\H,0,4.96284434,1.47385022,0.611
 72439\H,0,5.48017135,-0.19447038,0.98629637\C,0,-0.0151884,-2.46371357
 ,-0.0014483\H,0,-0.05890506,-1.31313936,2.40936105\H,0,0.03988379,-1.3
 1435573,-2.41319874\\Version=ES64L-G16RevB.01\State=1-A\HF=-1998.97844
 68\RMSD=5.253e-09\PG=C01 [X(C24H45N1O3P2Ru1)]\\@


 FRICTION IS A DRAG,
 AND ENTROPY AIN'T WHAT IT USED TO BE.
 Job cpu time:       0 days  7 hours 24 minutes 59.7 seconds.
 Elapsed time:       0 days  0 hours 18 minutes 40.8 seconds.
 File lengths (MBytes):  RWF=   3284 Int=      0 D2E=      0 Chk=    186 Scr=      1
 Normal termination of Gaussian 16 at Thu Jan 25 12:10:19 2024.
