76

  O  0.00247197 -0.44253635 -1.99698516
  P -2.48949413 -0.16188710  0.09919912
  O -0.02509978 -3.62683569 -0.00040338
  N  0.00033614  1.53338867 -0.00220535
  C -2.28188172  1.46381892  0.96914066
  H -3.20035371  2.06563248  0.92509261
  H -2.12302016  1.18614964  2.02446516
  O -0.00792773 -0.44208990  1.99302957
  P  2.49108600 -0.16757652 -0.09687788
  C -1.09958971  2.24923280  0.45652283
  C -1.11422668  3.63109901  0.45534003
  H -2.00855092  4.14359707  0.81826468
  C  0.00497024  4.36846421 -0.00376865
  H  0.00667779  5.45940573 -0.00455543
  C  1.12186472  3.62694891 -0.46176887
  H  2.01787236  4.13617893 -0.82513812
  C  1.10290500  2.24509084 -0.46129874
  C  2.28309365  1.45542358 -0.97221351
  H  3.20238648  2.05625402 -0.93224055
  H  2.12193708  1.17347291 -2.02603730
  C -3.59832715 -1.20122190  1.24711542
  C -3.38691355  0.24557416 -1.53053006
  C -2.73883527 -1.75271596  2.39652413
  H -3.39261578 -2.34099423  3.06141128
  H -2.27870048 -0.95586112  2.99461262
  H -1.94695662 -2.42017786  2.02934126
  C -4.15739710 -2.40160071  0.46833018
  H -4.65035327 -3.08522312  1.17894388
  H -3.35572486 -2.96415951 -0.03508033
  H -4.90482022 -2.11039020 -0.28080715
 Ru -0.00456271 -0.61265518 -0.00212325
  C -4.73740547 -0.37383250  1.86385030
  H -5.33246662 -1.03108873  2.52019254
  H -5.41625647  0.04920661  1.11536479
  H -4.35072325  0.44624863  2.48629625
  C -3.28887809 -0.96406107 -2.47530944
  H -3.72179790 -0.68977883 -3.45189935
  H -3.83964547 -1.83594817 -2.10175388
  H -2.24240958 -1.25454139 -2.63776330
  C -2.66404432  1.44191039 -2.17663279
  H -3.10038853  1.60716459 -3.17583105
  H -1.59077758  1.25672841 -2.29753814
  H -2.80126880  2.36470455 -1.59724199
  C -4.85625006  0.63928285 -1.32832548
  H -5.26219961  0.97658583 -2.29704290
  H -4.96431467  1.47166442 -0.61707859
  H -5.47724060 -0.19896269 -0.98750944
  C  3.59904098 -1.20955991 -1.24322624
  C  3.38961899  0.24643143  1.53054283
  C  4.16075784 -2.40692219 -0.46174663
  H  4.65250903 -3.09268278 -1.17115002
  H  3.36077890 -2.96833463  0.04563350
  H  4.90979709 -2.11242096  0.28452599
  C  4.73644059 -0.38393335 -1.86535328
  H  5.33057311 -1.04324991 -2.52048346
  H  5.41654934  0.04207576 -1.11964288
  H  4.34824175  0.43375918 -2.48997987
  C  2.73658279 -1.76514520 -2.38848048
  H  3.38828264 -2.35594475 -3.05319451
  H  2.27481166 -0.97030513 -2.98805609
  H  1.94537061 -2.43092588 -2.01666751
  C  3.29573928 -0.96082489  2.47877405
  H  3.72849615 -0.68251592  3.45430503
  H  3.84875596 -1.83222258  2.10743073
  H  2.25019069 -1.25388777  2.64282704
  C  2.66374265  1.44223772  2.17426841
  H  3.09977170  1.61096948  3.17303040
  H  1.59092274  1.25430289  2.29571393
  H  2.79819831  2.36411212  1.59280257
  C  4.85767254  0.64331300  1.32556745
  H  5.26416576  0.98441366  2.29274701
  H  4.96284434  1.47385022  0.61172439
  H  5.48017135 -0.19447038  0.98629637
  C -0.01518840 -2.46371357 -0.00144830
  H -0.05890506 -1.31313936  2.40936105
  H  0.03988379 -1.31435573 -2.41319874