 Entering Gaussian System, Link 0=g16
 Input=tBut_Ru_T_Crossing_RRegion_Interpol_struc_2_5_T_root_1_MC.gjf
 Output=tBut_Ru_T_Crossing_RRegion_Interpol_struc_2_5_T_root_1_MC.log
 Initial command:
 /cluster/apps/g16/g16/l1.exe "/beegfs/do57cig/gauss2047952/Gau-4802.inp" -scrdir="/beegfs/do57cig/gauss2047952/"
 Default CPUs for threads: 0-23
 Default is to use a total of  24 processors:
                               24 via shared-memory
                                1 via Linda
 Entering Link 1 = /cluster/apps/g16/g16/l1.exe PID=      4803.
  
 Copyright (c) 1988-2017, Gaussian, Inc.  All Rights Reserved.
  
 This is part of the Gaussian(R) 16 program.  It is based on
 the Gaussian(R) 09 system (copyright 2009, Gaussian, Inc.),
 the Gaussian(R) 03 system (copyright 2003, Gaussian, Inc.),
 the Gaussian(R) 98 system (copyright 1998, Gaussian, Inc.),
 the Gaussian(R) 94 system (copyright 1995, Gaussian, Inc.),
 the Gaussian 92(TM) system (copyright 1992, Gaussian, Inc.),
 the Gaussian 90(TM) system (copyright 1990, Gaussian, Inc.),
 the Gaussian 88(TM) system (copyright 1988, Gaussian, Inc.),
 the Gaussian 86(TM) system (copyright 1986, Carnegie Mellon
 University), and the Gaussian 82(TM) system (copyright 1983,
 Carnegie Mellon University). Gaussian is a federally registered
 trademark of Gaussian, Inc.
  
 This software contains proprietary and confidential information,
 including trade secrets, belonging to Gaussian, Inc.
  
 This software is provided under written license and may be
 used, copied, transmitted, or stored only in accord with that
 written license.
  
 The following legend is applicable only to US Government
 contracts under FAR:
  
                    RESTRICTED RIGHTS LEGEND
  
 Use, reproduction and disclosure by the US Government is
 subject to restrictions as set forth in subparagraphs (a)
 and (c) of the Commercial Computer Software - Restricted
 Rights clause in FAR 52.227-19.
  
 Gaussian, Inc.
 340 Quinnipiac St., Bldg. 40, Wallingford CT 06492
  
  
 ---------------------------------------------------------------
 Warning -- This program may not be used in any manner that
 competes with the business of Gaussian, Inc. or will provide
 assistance to any competitor of Gaussian, Inc.  The licensee
 of this program is prohibited from giving any competitor of
 Gaussian, Inc. access to this program.  By using this program,
 the user acknowledges that Gaussian, Inc. is engaged in the
 business of creating and licensing software in the field of
 computational chemistry and represents and warrants to the
 licensee that it is not a competitor of Gaussian, Inc. and that
 it will not use this program in any manner prohibited above.
 ---------------------------------------------------------------
  

 Cite this work as:
 Gaussian 16, Revision B.01,
 M. J. Frisch, G. W. Trucks, H. B. Schlegel, G. E. Scuseria, 
 M. A. Robb, J. R. Cheeseman, G. Scalmani, V. Barone, 
 G. A. Petersson, H. Nakatsuji, X. Li, M. Caricato, A. V. Marenich, 
 J. Bloino, B. G. Janesko, R. Gomperts, B. Mennucci, H. P. Hratchian, 
 J. V. Ortiz, A. F. Izmaylov, J. L. Sonnenberg, D. Williams-Young, 
 F. Ding, F. Lipparini, F. Egidi, J. Goings, B. Peng, A. Petrone, 
 T. Henderson, D. Ranasinghe, V. G. Zakrzewski, J. Gao, N. Rega, 
 G. Zheng, W. Liang, M. Hada, M. Ehara, K. Toyota, R. Fukuda, 
 J. Hasegawa, M. Ishida, T. Nakajima, Y. Honda, O. Kitao, H. Nakai, 
 T. Vreven, K. Throssell, J. A. Montgomery, Jr., J. E. Peralta, 
 F. Ogliaro, M. J. Bearpark, J. J. Heyd, E. N. Brothers, K. N. Kudin, 
 V. N. Staroverov, T. A. Keith, R. Kobayashi, J. Normand, 
 K. Raghavachari, A. P. Rendell, J. C. Burant, S. S. Iyengar, 
 J. Tomasi, M. Cossi, J. M. Millam, M. Klene, C. Adamo, R. Cammi, 
 J. W. Ochterski, R. L. Martin, K. Morokuma, O. Farkas, 
 J. B. Foresman, and D. J. Fox, Gaussian, Inc., Wallingford CT, 2016.
 
 ******************************************
 Gaussian 16:  ES64L-G16RevB.01 20-Dec-2017
                 5-Feb-2024 
 ******************************************
 %Oldchk=tBut_Ru_T_Crossing_region_Interpol_struc_2_5_T.chk
 %chk=tBut_Ru_T_Crossing_region_Interpol_struc_2_5_T_root_1.chk
 SetSPE:  set environment variable "MP_BIND" = "yes"
 SetSPE:  set environment variable "MP_BLIST" = "0,1,2,3,4,5,6,7,8,9,10,11,12,13,14,15,16,17,18,19,20,21,22,23"
 Copying data from "tBut_Ru_T_Crossing_region_Interpol_struc_2_5_T.chk" to current chk file "tBut_Ru_T_Crossing_region_Interpol_struc_2_5_T_root_1.chk"
 IOpt=  2 FromEx=T IUOpen= 4 IOptOp= 5 NList=   0 IFRang= 0 IUIn= 4 IUOut= 2.
 Default route: CacheSize=81920
 ----------------------------------------------------------------------
 # td=(triplets,nstates=5,conver=3,root=3) b3lyp scrf=(smd,solvent=wate
 r,iterative) def2svp empiricaldispersion=gd3bj int=ultrafine scf=xqc g
 uess=read geom=check density=current
 ----------------------------------------------------------------------
 1/4=81920,29=2,30=1,38=1,172=1/1;
 2/4=81920,12=2,40=1/2;
 3/4=81920,5=43,7=101,11=9,14=-4,25=1,30=1,70=32201,71=1,72=1,74=-5,75=-5,116=-2,124=41,140=2/1,2,3,8;
 4/4=81920,5=1/1;
 5/4=81920,5=2,8=3,13=1,38=6,53=1/2,8;
 8/4=81920,6=1,10=1,107=3,108=5/1;
 9/4=81920,8=3,9=3,15=1,41=5,42=1,48=3,70=2/14;
 10/4=81920,5=4,13=10,28=3/2;
 6/4=81920,7=2,8=2,9=2,10=2,22=-1/1;
 99/4=81920,5=1,9=1/99;
 --------------------------------------------------------
 tBut_Ru_T_Crossing_region_Interpol_struc_2_5_T_root_1_MC
 --------------------------------------------------------
 Structure from the checkpoint file:  "tBut_Ru_T_Crossing_region_Interpol_struc_2_5_T_root_1.chk"
 Charge =  0 Multiplicity = 3
 Z-Matrix found in chk file.
 O,0,0.00247197,-0.44253635,-1.99698516
 P,0,-2.48949413,-0.1618871,0.09919912
 O,0,-0.02509978,-3.62683569,-0.00040338
 N,0,0.00033614,1.53338867,-0.00220535
 C,0,-2.28188172,1.46381892,0.96914066
 H,0,-3.20035371,2.06563248,0.92509261
 H,0,-2.12302016,1.18614964,2.02446516
 O,0,-0.00792773,-0.4420899,1.99302957
 P,0,2.491086,-0.16757652,-0.09687788
 C,0,-1.09958971,2.2492328,0.45652283
 C,0,-1.11422668,3.63109901,0.45534003
 H,0,-2.00855092,4.14359707,0.81826468
 C,0,0.00497024,4.36846421,-0.00376865
 H,0,0.00667779,5.45940573,-0.00455543
 C,0,1.12186472,3.62694891,-0.46176887
 H,0,2.01787236,4.13617893,-0.82513812
 C,0,1.102905,2.24509084,-0.46129874
 C,0,2.28309365,1.45542358,-0.97221351
 H,0,3.20238648,2.05625402,-0.93224055
 H,0,2.12193708,1.17347291,-2.0260373
 C,0,-3.59832715,-1.2012219,1.24711542
 C,0,-3.38691355,0.24557416,-1.53053006
 C,0,-2.73883527,-1.75271596,2.39652413
 H,0,-3.39261578,-2.34099423,3.06141128
 H,0,-2.27870048,-0.95586112,2.99461262
 H,0,-1.94695662,-2.42017786,2.02934126
 C,0,-4.1573971,-2.40160071,0.46833018
 H,0,-4.65035327,-3.08522312,1.17894388
 H,0,-3.35572486,-2.96415951,-0.03508033
 H,0,-4.90482022,-2.1103902,-0.28080715
 Ru,0,-0.00456271,-0.61265518,-0.00212325
 C,0,-4.73740547,-0.3738325,1.8638503
 H,0,-5.33246662,-1.03108873,2.52019254
 H,0,-5.41625647,0.04920661,1.11536479
 H,0,-4.35072325,0.44624863,2.48629625
 C,0,-3.28887809,-0.96406107,-2.47530944
 H,0,-3.7217979,-0.68977883,-3.45189935
 H,0,-3.83964547,-1.83594817,-2.10175388
 H,0,-2.24240958,-1.25454139,-2.6377633
 C,0,-2.66404432,1.44191039,-2.17663279
 H,0,-3.10038853,1.60716459,-3.17583105
 H,0,-1.59077758,1.25672841,-2.29753814
 H,0,-2.8012688,2.36470455,-1.59724199
 C,0,-4.85625006,0.63928285,-1.32832548
 H,0,-5.26219961,0.97658583,-2.2970429
 H,0,-4.96431467,1.47166442,-0.61707859
 H,0,-5.4772406,-0.19896269,-0.98750944
 C,0,3.59904098,-1.20955991,-1.24322624
 C,0,3.38961899,0.24643143,1.53054283
 C,0,4.16075784,-2.40692219,-0.46174663
 H,0,4.65250903,-3.09268278,-1.17115002
 H,0,3.3607789,-2.96833463,0.0456335
 H,0,4.90979709,-2.11242096,0.28452599
 C,0,4.73644059,-0.38393335,-1.86535328
 H,0,5.33057311,-1.04324991,-2.52048346
 H,0,5.41654934,0.04207576,-1.11964288
 H,0,4.34824175,0.43375918,-2.48997987
 C,0,2.73658279,-1.7651452,-2.38848048
 H,0,3.38828264,-2.35594475,-3.05319451
 H,0,2.27481166,-0.97030513,-2.98805609
 H,0,1.94537061,-2.43092588,-2.01666751
 C,0,3.29573928,-0.96082489,2.47877405
 H,0,3.72849615,-0.68251592,3.45430503
 H,0,3.84875596,-1.83222258,2.10743073
 H,0,2.25019069,-1.25388777,2.64282704
 C,0,2.66374265,1.44223772,2.17426841
 H,0,3.0997717,1.61096948,3.1730304
 H,0,1.59092274,1.25430289,2.29571393
 H,0,2.79819831,2.36411212,1.59280257
 C,0,4.85767254,0.643313,1.32556745
 H,0,5.26416576,0.98441366,2.29274701
 H,0,4.96284434,1.47385022,0.61172439
 H,0,5.48017135,-0.19447038,0.98629637
 C,0,-0.0151884,-2.46371357,-0.0014483
 H,0,-0.05890506,-1.31313936,2.40936105
 H,0,0.03988379,-1.31435573,-2.41319874
 Recover connectivity data from disk.
 Stoichiometry    C24H45NO3P2Ru(3)
 Framework group  C1[X(C24H45NO3P2Ru)]
 Deg. of freedom   222
 Full point group                 C1      NOp   1
 Largest Abelian subgroup         C1      NOp   1
 Largest concise Abelian subgroup C1      NOp   1
                         Standard orientation:                         
 ---------------------------------------------------------------------
 Center     Atomic      Atomic             Coordinates (Angstroms)
 Number     Number       Type             X           Y           Z
 ---------------------------------------------------------------------
      1          8           0        0.002258   -0.394641   -1.996448
      2         15           0       -2.488363   -0.113041    0.101208
      3          8           0       -0.024465   -3.578329    0.001121
      4          7           0        0.001616    1.581892   -0.002269
      5          6           0       -2.280003    1.512904    0.970524
      6          1           0       -3.198427    2.114819    0.926866
      7          1           0       -2.120517    1.235536    2.025833
      8          8           0       -0.005649   -0.392978    1.993572
      9         15           0        2.492093   -0.119415   -0.097980
     10          6           0       -1.097934    2.298013    0.456928
     11          6           0       -1.112398    3.679881    0.455333
     12          1           0       -2.006432    4.192602    0.818661
     13          6           0        0.006604    4.416966   -0.004699
     14          1           0        0.008447    5.507907   -0.005820
     15          6           0        1.123119    3.675171   -0.463171
     16          1           0        2.018963    4.184178   -0.827256
     17          6           0        1.103987    2.293316   -0.462268
     18          6           0        2.283757    1.503345   -0.973680
     19          1           0        3.203150    2.104072   -0.934464
     20          1           0        2.121906    1.221093   -2.027317
     21          6           0       -3.596608   -1.151887    1.250133
     22          6           0       -3.386750    0.294036   -1.528085
     23          6           0       -2.736467   -1.703139    2.399173
     24          1           0       -3.389906   -2.291133    3.064647
     25          1           0       -2.275859   -0.906160    2.996731
     26          1           0       -1.944902   -2.370812    2.031698
     27          6           0       -4.156315   -2.352433    0.472063
     28          1           0       -4.648913   -3.035777    1.183193
     29          1           0       -3.355028   -2.915246   -0.031677
     30          1           0       -4.904170   -2.061357   -0.276696
     31         44           0       -0.003552   -0.564152   -0.001530
     32          6           0       -4.735197   -0.324167    1.867328
     33          1           0       -5.329931   -0.981149    2.524242
     34          1           0       -5.414463    0.098729    1.119138
     35          1           0       -4.348024    0.496055    2.489282
     36          6           0       -3.289456   -0.915899   -2.472556
     37          1           0       -3.722952   -0.641860   -3.448959
     38          1           0       -3.840099   -1.787603   -2.098391
     39          1           0       -2.243125   -1.206560   -2.635576
     40          6           0       -2.664134    1.490085   -2.175003
     41          1           0       -3.101082    1.655089   -3.173979
     42          1           0       -1.590967    1.304732   -2.296523
     43          1           0       -2.800881    2.413073   -1.595808
     44          6           0       -4.855910    0.687990   -1.325082
     45          1           0       -5.262423    1.025049   -2.293648
     46          1           0       -4.963426    1.520602   -0.614021
     47          1           0       -5.476792   -0.150073   -0.983622
     48          6           0        3.599201   -1.161886   -1.244703
     49          6           0        3.391695    0.294976    1.528753
     50          6           0        4.161256   -2.359081   -0.463210
     51          1           0        4.652478   -3.045119   -1.172711
     52          1           0        3.361524   -2.920238    0.044841
     53          1           0        4.910799   -2.064446    0.282505
     54          6           0        4.736315   -0.336592   -1.867792
     55          1           0        5.329955   -0.996182   -2.523092
     56          1           0        5.416943    0.089560   -1.122637
     57          1           0        4.347828    0.480959   -2.492425
     58          6           0        2.735958   -1.717712   -2.389249
     59          1           0        3.387168   -2.308796   -3.054190
     60          1           0        2.273912   -0.922997   -2.988778
     61          1           0        1.944895   -2.383280   -2.016738
     62          6           0        3.298256   -0.911979    2.477410
     63          1           0        3.731658   -0.633427    3.452586
     64          1           0        3.850932   -1.783559    2.105987
     65          1           0        2.252774   -1.204861    2.642206
     66          6           0        2.666370    1.491070    2.172567
     67          1           0        3.103045    1.660051    3.171005
     68          1           0        1.593603    1.303306    2.294741
     69          1           0        2.800578    2.412750    1.590737
     70          6           0        4.859669    0.691612    1.322739
     71          1           0        5.266810    1.032956    2.289561
     72          1           0        4.964499    1.521918    0.608578
     73          1           0        5.481851   -0.146353    0.983334
     74          6           0       -0.014409   -2.415208   -0.000285
     75          1           0       -0.056475   -1.263894    2.410201
     76          1           0        0.039300   -1.266592   -2.412419
 ---------------------------------------------------------------------
 Rotational constants (GHZ):           0.1958214           0.1034298           0.0917219
 Standard basis: def2SVP (5D, 7F)
 There are   719 symmetry adapted cartesian basis functions of A   symmetry.
 There are   684 symmetry adapted basis functions of A   symmetry.
   684 basis functions,  1154 primitive gaussians,   719 cartesian basis functions
   134 alpha electrons      132 beta electrons
       nuclear repulsion energy      4488.6583470215 Hartrees.
 NAtoms=   76 NActive=   76 NUniq=   76 SFac= 1.00D+00 NAtFMM=   60 NAOKFM=T Big=T
 Integral buffers will be    131072 words long.
 Regular integral format.
 Two-electron integral symmetry is turned on.
 Nuclear repulsion after empirical dispersion term =     4488.4415117905 Hartrees.
 Force iterative solution in PCM.
 ------------------------------------------------------------------------------
 Polarizable Continuum Model (PCM)
 =================================
 Model                : PCM.
 Atomic radii         : SMD-Coulomb.
 Polarization charges : Total charges.
 Charge compensation  : None.
 Solution method      : Iterative solution.
 Cavity type          : VdW (van der Waals Surface) (Alpha=1.000).
 Cavity algorithm     : GePol (No added spheres)
                        Default sphere list used, NSphG=   76.
                        Lebedev-Laikov grids with approx.  5.0 points / Ang**2.
                        Smoothing algorithm: York/Karplus (Gamma=1.0000).
                        Polarization charges: spherical gaussians, with
                                              point-specific exponents (IZeta= 3).
                        Self-potential: point-specific (ISelfS= 7).
                        Self-field    : sphere-specific E.n sum rule (ISelfD= 2).
 1st derivatives      : Analytical E(r).r(x)/FMM algorithm (CHGder, D1EAlg=3).
                        Cavity 1st derivative terms included.
 Solvent              : Water, Eps=  78.355300 Eps(inf)=   1.777849
 ------------------------------------------------------------------------------
 ------------------------------------------------------------------------------
 Atomic radii for non-electrostatic terms: SMD-CDS.
 ------------------------------------------------------------------------------
 Nuclear repulsion after PCM non-electrostatic terms =     4488.4620665669 Hartrees.
 One-electron integrals computed using PRISM.
   1 Symmetry operations used in ECPInt.
 ECPInt:  NShTT=   54615 NPrTT=  190596 LenC2=   47836 LenP2D=  112984.
 LDataN:  DoStor=T MaxTD1= 7 Len=  274
 NBasis=   684 RedAO= T EigKep=  5.07D-04  NBF=   684
 NBsUse=   684 1.00D-06 EigRej= -1.00D+00 NBFU=   684
 Defaulting to unpruned grid for atomic number  44.
 Initial guess from the checkpoint file:  "tBut_Ru_T_Crossing_region_Interpol_struc_2_5_T_root_1.chk"
 B after Tr=    -0.000000   -0.000000   -0.000000
         Rot=    1.000000    0.000000    0.000000    0.000000 Ang=   0.00 deg.
 Initial guess <Sx>= 0.0000 <Sy>= 0.0000 <Sz>= 1.0000 <S**2>= 2.0173 S= 1.0058
 Requested convergence on RMS density matrix=1.00D-08 within  32 cycles.
 Requested convergence on MAX density matrix=1.00D-06.
 Requested convergence on             energy=1.00D-06.
 No special actions if energy rises.
 Defaulting to unpruned grid for atomic number  44.
 Defaulting to unpruned grid for atomic number  44.
 Defaulting to unpruned grid for atomic number  44.
 Defaulting to unpruned grid for atomic number  44.
 Defaulting to unpruned grid for atomic number  44.
 Defaulting to unpruned grid for atomic number  44.
 Defaulting to unpruned grid for atomic number  44.
 Defaulting to unpruned grid for atomic number  44.
 Defaulting to unpruned grid for atomic number  44.
 Defaulting to unpruned grid for atomic number  44.
 Defaulting to unpruned grid for atomic number  44.
 Defaulting to unpruned grid for atomic number  44.
 Defaulting to unpruned grid for atomic number  44.
 Defaulting to unpruned grid for atomic number  44.
 Defaulting to unpruned grid for atomic number  44.
 Defaulting to unpruned grid for atomic number  44.
 Defaulting to unpruned grid for atomic number  44.
 Defaulting to unpruned grid for atomic number  44.
 Defaulting to unpruned grid for atomic number  44.
 Defaulting to unpruned grid for atomic number  44.
 Defaulting to unpruned grid for atomic number  44.
 Defaulting to unpruned grid for atomic number  44.
 Defaulting to unpruned grid for atomic number  44.
 Defaulting to unpruned grid for atomic number  44.
 QICG: NIter= 146, all vectors converged, nQ=   1 QEMax= 9.45D-07
 QICG: NIter=   5, all vectors converged, nQ=   1 QEMax= 7.68D-07
 Error on total polarization charges =  0.08073
 SCF Done:  E(UB3LYP) =  -1998.92674159     A.U. after    1 cycles
            NFock=  1  Conv=0.46D-08     -V/T= 2.0404
 <Sx>= 0.0000 <Sy>= 0.0000 <Sz>= 1.0000 <S**2>= 2.0173 S= 1.0058
 <L.S>=  0.00000000000    
 SMD-CDS (non-electrostatic) energy       (kcal/mol) =      12.90
 (included in total energy above)
 Annihilation of the first spin contaminant:
 S**2 before annihilation     2.0173,   after     2.0002
 QCSCF skips out because SCF is already converged.
 DoSCS=F DFT=T ScalE2(SS,OS)=  1.000000  1.000000
 ExpMin= 3.92D-02 ExpMax= 8.00D+03 ExpMxC= 1.20D+03 IAcc=3 IRadAn=         5 AccDes= 0.00D+00
 HarFok:  IExCor=  205 AccDes= 0.00D+00 IRadAn=         5 IDoV=-2 UseB2=F ITyADJ=14
 ICtDFT= 12500011 ScaDFX=  1.000000  1.000000  1.000000  1.000000
 Defaulting to unpruned grid for atomic number  44.
 GSVD:  LWork=       -2100 too small for GESVD, short by        9450 words or        9450 for optimal perf.
 Range of M.O.s used for correlation:    43   684
 NBasis=   684 NAE=   134 NBE=   132 NFC=    42 NFV=     0
 NROrb=    642 NOA=    92 NOB=    90 NVA=   550 NVB=   552

 **** Warning!!: The smallest alpha delta epsilon is  0.40146646D-01

 Ignoring spin specification with unrestricted ground state.
 NEqPCM:  Using equilibrium solvation (IEInf=0, Eps=  78.3553, EpsInf=   1.7778)
 Orbital symmetries:
 Alpha Orbitals:
       Occupied  (A) (A) (A) (A) (A) (A) (A) (A) (A) (A) (A) (A)
                 (A) (A) (A) (A) (A) (A) (A) (A) (A) (A) (A) (A)
                 (A) (A) (A) (A) (A) (A) (A) (A) (A) (A) (A) (A)
                 (A) (A) (A) (A) (A) (A) (A) (A) (A) (A) (A) (A)
                 (A) (A) (A) (A) (A) (A) (A) (A) (A) (A) (A) (A)
                 (A) (A) (A) (A) (A) (A) (A) (A) (A) (A) (A) (A)
                 (A) (A) (A) (A) (A) (A) (A) (A) (A) (A) (A) (A)
                 (A) (A) (A) (A) (A) (A) (A) (A) (A) (A) (A) (A)
                 (A) (A) (A) (A) (A) (A) (A) (A) (A) (A) (A) (A)
                 (A) (A) (A) (A) (A) (A) (A) (A) (A) (A) (A) (A)
                 (A) (A) (A) (A) (A) (A) (A) (A) (A) (A) (A) (A)
                 (A) (A)
       Virtual   (A) (A) (A) (A) (A) (A) (A) (A) (A) (A) (A) (A)
                 (A) (A) (A) (A) (A) (A) (A) (A) (A) (A) (A) (A)
                 (A) (A) (A) (A) (A) (A) (A) (A) (A) (A) (A) (A)
                 (A) (A) (A) (A) (A) (A) (A) (A) (A) (A) (A) (A)
                 (A) (A) (A) (A) (A) (A) (A) (A) (A) (A) (A) (A)
                 (A) (A) (A) (A) (A) (A) (A) (A) (A) (A) (A) (A)
                 (A) (A) (A) (A) (A) (A) (A) (A) (A) (A) (A) (A)
                 (A) (A) (A) (A) (A) (A) (A) (A) (A) (A) (A) (A)
                 (A) (A) (A) (A) (A) (A) (A) (A) (A) (A) (A) (A)
                 (A) (A) (A) (A) (A) (A) (A) (A) (A) (A) (A) (A)
                 (A) (A) (A) (A) (A) (A) (A) (A) (A) (A) (A) (A)
                 (A) (A) (A) (A) (A) (A) (A) (A) (A) (A) (A) (A)
                 (A) (A) (A) (A) (A) (A) (A) (A) (A) (A) (A) (A)
                 (A) (A) (A) (A) (A) (A) (A) (A) (A) (A) (A) (A)
                 (A) (A) (A) (A) (A) (A) (A) (A) (A) (A) (A) (A)
                 (A) (A) (A) (A) (A) (A) (A) (A) (A) (A) (A) (A)
                 (A) (A) (A) (A) (A) (A) (A) (A) (A) (A) (A) (A)
                 (A) (A) (A) (A) (A) (A) (A) (A) (A) (A) (A) (A)
                 (A) (A) (A) (A) (A) (A) (A) (A) (A) (A) (A) (A)
                 (A) (A) (A) (A) (A) (A) (A) (A) (A) (A) (A) (A)
                 (A) (A) (A) (A) (A) (A) (A) (A) (A) (A) (A) (A)
                 (A) (A) (A) (A) (A) (A) (A) (A) (A) (A) (A) (A)
                 (A) (A) (A) (A) (A) (A) (A) (A) (A) (A) (A) (A)
                 (A) (A) (A) (A) (A) (A) (A) (A) (A) (A) (A) (A)
                 (A) (A) (A) (A) (A) (A) (A) (A) (A) (A) (A) (A)
                 (A) (A) (A) (A) (A) (A) (A) (A) (A) (A) (A) (A)
                 (A) (A) (A) (A) (A) (A) (A) (A) (A) (A) (A) (A)
                 (A) (A) (A) (A) (A) (A) (A) (A) (A) (A) (A) (A)
                 (A) (A) (A) (A) (A) (A) (A) (A) (A) (A) (A) (A)
                 (A) (A) (A) (A) (A) (A) (A) (A) (A) (A) (A) (A)
                 (A) (A) (A) (A) (A) (A) (A) (A) (A) (A) (A) (A)
                 (A) (A) (A) (A) (A) (A) (A) (A) (A) (A) (A) (A)
                 (A) (A) (A) (A) (A) (A) (A) (A) (A) (A) (A) (A)
                 (A) (A) (A) (A) (A) (A) (A) (A) (A) (A) (A) (A)
                 (A) (A) (A) (A) (A) (A) (A) (A) (A) (A) (A) (A)
                 (A) (A) (A) (A) (A) (A) (A) (A) (A) (A) (A) (A)
                 (A) (A) (A) (A) (A) (A) (A) (A) (A) (A) (A) (A)
                 (A) (A) (A) (A) (A) (A) (A) (A) (A) (A) (A) (A)
                 (A) (A) (A) (A) (A) (A) (A) (A) (A) (A) (A) (A)
                 (A) (A) (A) (A) (A) (A) (A) (A) (A) (A) (A) (A)
                 (A) (A) (A) (A) (A) (A) (A) (A) (A) (A) (A) (A)
                 (A) (A) (A) (A) (A) (A) (A) (A) (A) (A) (A) (A)
                 (A) (A) (A) (A) (A) (A) (A) (A) (A) (A) (A) (A)
                 (A) (A) (A) (A) (A) (A) (A) (A) (A) (A) (A) (A)
                 (A) (A) (A) (A) (A) (A) (A) (A) (A) (A) (A) (A)
                 (A) (A) (A) (A) (A) (A) (A) (A) (A) (A)
 Beta  Orbitals:
       Occupied  (A) (A) (A) (A) (A) (A) (A) (A) (A) (A) (A) (A)
                 (A) (A) (A) (A) (A) (A) (A) (A) (A) (A) (A) (A)
                 (A) (A) (A) (A) (A) (A) (A) (A) (A) (A) (A) (A)
                 (A) (A) (A) (A) (A) (A) (A) (A) (A) (A) (A) (A)
                 (A) (A) (A) (A) (A) (A) (A) (A) (A) (A) (A) (A)
                 (A) (A) (A) (A) (A) (A) (A) (A) (A) (A) (A) (A)
                 (A) (A) (A) (A) (A) (A) (A) (A) (A) (A) (A) (A)
                 (A) (A) (A) (A) (A) (A) (A) (A) (A) (A) (A) (A)
                 (A) (A) (A) (A) (A) (A) (A) (A) (A) (A) (A) (A)
                 (A) (A) (A) (A) (A) (A) (A) (A) (A) (A) (A) (A)
                 (A) (A) (A) (A) (A) (A) (A) (A) (A) (A) (A) (A)
       Virtual   (A) (A) (A) (A) (A) (A) (A) (A) (A) (A) (A) (A)
                 (A) (A) (A) (A) (A) (A) (A) (A) (A) (A) (A) (A)
                 (A) (A) (A) (A) (A) (A) (A) (A) (A) (A) (A) (A)
                 (A) (A) (A) (A) (A) (A) (A) (A) (A) (A) (A) (A)
                 (A) (A) (A) (A) (A) (A) (A) (A) (A) (A) (A) (A)
                 (A) (A) (A) (A) (A) (A) (A) (A) (A) (A) (A) (A)
                 (A) (A) (A) (A) (A) (A) (A) (A) (A) (A) (A) (A)
                 (A) (A) (A) (A) (A) (A) (A) (A) (A) (A) (A) (A)
                 (A) (A) (A) (A) (A) (A) (A) (A) (A) (A) (A) (A)
                 (A) (A) (A) (A) (A) (A) (A) (A) (A) (A) (A) (A)
                 (A) (A) (A) (A) (A) (A) (A) (A) (A) (A) (A) (A)
                 (A) (A) (A) (A) (A) (A) (A) (A) (A) (A) (A) (A)
                 (A) (A) (A) (A) (A) (A) (A) (A) (A) (A) (A) (A)
                 (A) (A) (A) (A) (A) (A) (A) (A) (A) (A) (A) (A)
                 (A) (A) (A) (A) (A) (A) (A) (A) (A) (A) (A) (A)
                 (A) (A) (A) (A) (A) (A) (A) (A) (A) (A) (A) (A)
                 (A) (A) (A) (A) (A) (A) (A) (A) (A) (A) (A) (A)
                 (A) (A) (A) (A) (A) (A) (A) (A) (A) (A) (A) (A)
                 (A) (A) (A) (A) (A) (A) (A) (A) (A) (A) (A) (A)
                 (A) (A) (A) (A) (A) (A) (A) (A) (A) (A) (A) (A)
                 (A) (A) (A) (A) (A) (A) (A) (A) (A) (A) (A) (A)
                 (A) (A) (A) (A) (A) (A) (A) (A) (A) (A) (A) (A)
                 (A) (A) (A) (A) (A) (A) (A) (A) (A) (A) (A) (A)
                 (A) (A) (A) (A) (A) (A) (A) (A) (A) (A) (A) (A)
                 (A) (A) (A) (A) (A) (A) (A) (A) (A) (A) (A) (A)
                 (A) (A) (A) (A) (A) (A) (A) (A) (A) (A) (A) (A)
                 (A) (A) (A) (A) (A) (A) (A) (A) (A) (A) (A) (A)
                 (A) (A) (A) (A) (A) (A) (A) (A) (A) (A) (A) (A)
                 (A) (A) (A) (A) (A) (A) (A) (A) (A) (A) (A) (A)
                 (A) (A) (A) (A) (A) (A) (A) (A) (A) (A) (A) (A)
                 (A) (A) (A) (A) (A) (A) (A) (A) (A) (A) (A) (A)
                 (A) (A) (A) (A) (A) (A) (A) (A) (A) (A) (A) (A)
                 (A) (A) (A) (A) (A) (A) (A) (A) (A) (A) (A) (A)
                 (A) (A) (A) (A) (A) (A) (A) (A) (A) (A) (A) (A)
                 (A) (A) (A) (A) (A) (A) (A) (A) (A) (A) (A) (A)
                 (A) (A) (A) (A) (A) (A) (A) (A) (A) (A) (A) (A)
                 (A) (A) (A) (A) (A) (A) (A) (A) (A) (A) (A) (A)
                 (A) (A) (A) (A) (A) (A) (A) (A) (A) (A) (A) (A)
                 (A) (A) (A) (A) (A) (A) (A) (A) (A) (A) (A) (A)
                 (A) (A) (A) (A) (A) (A) (A) (A) (A) (A) (A) (A)
                 (A) (A) (A) (A) (A) (A) (A) (A) (A) (A) (A) (A)
                 (A) (A) (A) (A) (A) (A) (A) (A) (A) (A) (A) (A)
                 (A) (A) (A) (A) (A) (A) (A) (A) (A) (A) (A) (A)
                 (A) (A) (A) (A) (A) (A) (A) (A) (A) (A) (A) (A)
                 (A) (A) (A) (A) (A) (A) (A) (A) (A) (A) (A) (A)
                 (A) (A) (A) (A) (A) (A) (A) (A) (A) (A) (A) (A)
    20 initial guesses have been made.
 Convergence on wavefunction:    0.001000000000000
 Iteration     1 Dimension    20 NMult     0 NNew     20
 CISAX will form    20 AO SS matrices at one time.
 Defaulting to unpruned grid for atomic number  44.
 Defaulting to unpruned grid for atomic number  44.
 Defaulting to unpruned grid for atomic number  44.
 Defaulting to unpruned grid for atomic number  44.
 Defaulting to unpruned grid for atomic number  44.
 Defaulting to unpruned grid for atomic number  44.
 Defaulting to unpruned grid for atomic number  44.
 Defaulting to unpruned grid for atomic number  44.
 Defaulting to unpruned grid for atomic number  44.
 Defaulting to unpruned grid for atomic number  44.
 Defaulting to unpruned grid for atomic number  44.
 Defaulting to unpruned grid for atomic number  44.
 Defaulting to unpruned grid for atomic number  44.
 Defaulting to unpruned grid for atomic number  44.
 Defaulting to unpruned grid for atomic number  44.
 Defaulting to unpruned grid for atomic number  44.
 Defaulting to unpruned grid for atomic number  44.
 Defaulting to unpruned grid for atomic number  44.
 Defaulting to unpruned grid for atomic number  44.
 Defaulting to unpruned grid for atomic number  44.
 Defaulting to unpruned grid for atomic number  44.
 Defaulting to unpruned grid for atomic number  44.
 Defaulting to unpruned grid for atomic number  44.
 Defaulting to unpruned grid for atomic number  44.
 New state      2 was old state      3
 New state      3 was old state      6
 New state      4 was old state      2
 New state      5 was old state      4
 Iteration     2 Dimension    30 NMult    20 NNew     10
 Iteration     3 Dimension    40 NMult    30 NNew     10
 Iteration     4 Dimension    50 NMult    40 NNew     10
 Iteration     5 Dimension    60 NMult    50 NNew     10
 Iteration     6 Dimension    70 NMult    60 NNew     10
 Iteration     7 Dimension    76 NMult    70 NNew      6
 Iteration     8 Dimension    78 NMult    76 NNew      2
 Iteration     9 Dimension    80 NMult    78 NNew      2
 ***********************************************************************
 Excited states from <AA,BB:AA,BB> singles matrix:
 ***********************************************************************
 
 ExtSpn:  IState=     1 X2= 1.040 Y2= 0.040 X2-Y2-1=-1.22D-15
          S2Grnd=  2.017 Ra=  0.008 Rb= -0.004 T=  0.002 S2Ext=  0.006 S2=  2.023
 ExtSpn:  IState=     2 X2= 1.023 Y2= 0.023 X2-Y2-1= 0.00D+00
          S2Grnd=  2.017 Ra=  0.001 Rb= -0.000 T=  0.003 S2Ext=  0.004 S2=  2.021
 ExtSpn:  IState=     3 X2= 1.004 Y2= 0.004 X2-Y2-1= 1.11D-15
          S2Grnd=  2.017 Ra=  0.002 Rb=  0.001 T= -0.004 S2Ext= -0.001 S2=  2.016
 ExtSpn:  IState=     4 X2= 1.027 Y2= 0.027 X2-Y2-1=-4.44D-16
          S2Grnd=  2.017 Ra=  0.001 Rb= -0.002 T=  0.009 S2Ext=  0.007 S2=  2.025
 ExtSpn:  IState=     5 X2= 1.006 Y2= 0.006 X2-Y2-1=-4.44D-16
          S2Grnd=  2.017 Ra=  0.009 Rb= -0.001 T=  0.002 S2Ext=  0.010 S2=  2.027
 Ground to excited state transition densities written to RWF  633
 Ground to excited state transition electric dipole moments (Au):
       state          X           Y           Z        Dip. S.      Osc.
         1        -0.2371      0.0090      0.0575      0.0596      0.0004
         2        -0.3064      0.0032      0.1440      0.1146      0.0029
         3        -0.0195      0.0005      0.0217      0.0009      0.0000
         4         0.0072      1.6754      0.0102      2.8071      0.0952
         5         0.0204      0.0385     -0.2069      0.0447      0.0017
 Ground to excited state transition velocity dipole moments (Au):
       state          X           Y           Z        Dip. S.      Osc.
         1         0.0796     -0.0193      0.5460      0.3048     18.9719
         2         0.0543     -0.0172      0.3116      0.1003      1.7922
         3        -0.0044      0.0016     -0.0313      0.0010      0.0140
         4        -0.0059     -0.1716     -0.0007      0.0295      0.3862
         5         0.0210     -0.0141      0.2229      0.0503      0.5973
 Ground to excited state transition magnetic dipole moments (Au):
       state          X           Y           Z
         1         0.5384     -0.0107     -0.2743
         2        -0.2191     -0.0089     -1.2792
         3         0.0944     -0.0034     -0.7989
         4        -0.0716     -0.5875      0.0336
         5         0.3468     -0.0014      0.0406
 Ground to excited state transition velocity quadrupole moments (Au):
       state          XX          YY          ZZ          XY          XZ          YZ
         1        -0.4489     -0.2649     -0.3625     -0.3116      0.0141      0.2623
         2        -0.2555     -0.1783     -0.1917     -0.1726      0.0097      0.1424
         3        -0.0040     -0.0071      0.0044      0.0291     -0.0042      0.0172
         4        -4.8752     -4.5642     -2.4297      0.0442      0.0164     -0.0540
         5        -0.2171     -0.1484     -0.1578     -0.0862      0.0076      0.1447
 <0|del|b> * <b|rxdel|0> + <0|del|b> * <b|delr+rdel|0>
 Rotatory Strengths (R) in cgs (10**-40 erg-esu-cm/Gauss)
       state          XX          YY          ZZ    R(velocity)    E-M Angle
         1    -10543.9127   2774.9494    722.9397  -2348.6745      108.66
         2     -4282.9220  -3306.2097   -186.2395  -2591.7904      176.49
         3       178.5310    188.3794     -2.5928    121.4392       15.02
         4       719.5632      5.1854    681.5420    468.7635        6.08
         5       -63.1115    242.9769     26.2043     68.6899       77.94
 1/2[<0|r|b>*<b|rxdel|0> + (<0|rxdel|b>*<b|r|0>)*]
 Rotatory Strengths (R) in cgs (10**-40 erg-esu-cm/Gauss)
       state          XX          YY          ZZ     R(length)
         1        90.2558      0.0681     11.1499     33.8246
         2       -47.4728      0.0200    130.2619     27.6030
         3         1.3003      0.0012     12.2608      4.5208
         4         0.3642    696.0396     -0.2418    232.0540
         5        -5.0115      0.0371      5.9447      0.3234
  1/2[<0|del|b>*<b|r|0> + (<0|r|b>*<b|del|0>)*] (Au)
       state          X           Y           Z        Dip. S.   Osc.(frdel)
         1        -0.0189     -0.0002      0.0314     -0.0123     -0.0082
         2        -0.0166     -0.0001      0.0449     -0.0282     -0.0188
         3         0.0001      0.0000     -0.0007      0.0006      0.0004
         4        -0.0000     -0.2875     -0.0000      0.2876      0.1917
         5         0.0004     -0.0005     -0.0461      0.0462      0.0308

 Excitation energies and oscillator strengths:
 
 Excited State   1:  3.015-A      0.2915 eV 4253.57 nm  f=0.0004  <S**2>=2.023
    134A ->135A        0.99996
 
 Excited State   2:  3.014-A      1.0154 eV 1221.07 nm  f=0.0029  <S**2>=2.021
    134A ->137A        0.99523
 
 Excited State   3:  3.011-A      1.2980 eV  955.21 nm  f=0.0000  <S**2>=2.016
    128B ->133B        0.10703
    129B ->133B        0.32199
    131B ->133B        0.63667
    132B ->133B        0.68217
 This state for optimization and/or second-order correction.
 Total Energy, E(TD-HF/TD-DFT) =  -1998.87904162    
 Copying the excited state density for this state as the 1-particle RhoCI density.
 
 Excited State   4:  3.016-A      1.3850 eV  895.19 nm  f=0.0952  <S**2>=2.025
    134A ->136A        1.00116
 
 Excited State   5:  3.018-A      1.5282 eV  811.33 nm  f=0.0017  <S**2>=2.027
    134A ->138A        0.96416
    134A ->139A       -0.23537
 SavETr:  write IOETrn=   770 NScale= 10 NData=  16 NLR=1 NState=    5 LETran=     100.
 NEqPCM:  Using equilibrium solvation (IEInf=0, Eps=  78.3553, EpsInf=   1.7778)
          Differentiating once with respect to electric field.
                with respect to dipole field.
          Electric field/nuclear overlap derivatives assumed to be zero.
          There are     1 degrees of freedom in the 1st order CPHF.  IDoFFX=0 NUNeed=     1.
 Defaulting to unpruned grid for atomic number  44.
 Defaulting to unpruned grid for atomic number  44.
 Defaulting to unpruned grid for atomic number  44.
 Defaulting to unpruned grid for atomic number  44.
 Defaulting to unpruned grid for atomic number  44.
 Defaulting to unpruned grid for atomic number  44.
 Defaulting to unpruned grid for atomic number  44.
 Defaulting to unpruned grid for atomic number  44.
 Defaulting to unpruned grid for atomic number  44.
 Defaulting to unpruned grid for atomic number  44.
 Defaulting to unpruned grid for atomic number  44.
 Defaulting to unpruned grid for atomic number  44.
 Defaulting to unpruned grid for atomic number  44.
 Defaulting to unpruned grid for atomic number  44.
 Defaulting to unpruned grid for atomic number  44.
 Defaulting to unpruned grid for atomic number  44.
 Defaulting to unpruned grid for atomic number  44.
 Defaulting to unpruned grid for atomic number  44.
 Defaulting to unpruned grid for atomic number  44.
 Defaulting to unpruned grid for atomic number  44.
 Defaulting to unpruned grid for atomic number  44.
 Defaulting to unpruned grid for atomic number  44.
 Defaulting to unpruned grid for atomic number  44.
 Defaulting to unpruned grid for atomic number  44.
 LinEq1:  Iter=  0 NonCon=     1 RMS=9.03D-04 Max=1.03D-01 NDo=     1
 AX will form     1 AO Fock derivatives at one time.
 LinEq1:  Iter=  1 NonCon=     1 RMS=7.49D-04 Max=1.09D-01 NDo=     1
 LinEq1:  Iter=  2 NonCon=     1 RMS=8.76D-04 Max=1.00D-01 NDo=     1
 LinEq1:  Iter=  3 NonCon=     1 RMS=8.25D-04 Max=9.38D-02 NDo=     1
 LinEq1:  Iter=  4 NonCon=     1 RMS=6.55D-04 Max=6.20D-02 NDo=     1
 LinEq1:  Iter=  5 NonCon=     1 RMS=4.87D-04 Max=5.88D-02 NDo=     1
 LinEq1:  Iter=  6 NonCon=     1 RMS=4.42D-04 Max=4.95D-02 NDo=     1
 LinEq1:  Iter=  7 NonCon=     1 RMS=2.50D-04 Max=2.27D-02 NDo=     1
 LinEq1:  Iter=  8 NonCon=     1 RMS=2.14D-04 Max=2.18D-02 NDo=     1
 LinEq1:  Iter=  9 NonCon=     1 RMS=2.17D-04 Max=3.10D-02 NDo=     1
 LinEq1:  Iter= 10 NonCon=     1 RMS=1.45D-04 Max=2.34D-02 NDo=     1
 LinEq1:  Iter= 11 NonCon=     1 RMS=1.43D-04 Max=2.40D-02 NDo=     1
 LinEq1:  Iter= 12 NonCon=     1 RMS=1.10D-04 Max=1.66D-02 NDo=     1
 LinEq1:  Iter= 13 NonCon=     1 RMS=7.20D-05 Max=8.08D-03 NDo=     1
 LinEq1:  Iter= 14 NonCon=     1 RMS=4.57D-05 Max=6.61D-03 NDo=     1
 LinEq1:  Iter= 15 NonCon=     1 RMS=2.89D-05 Max=4.44D-03 NDo=     1
 LinEq1:  Iter= 16 NonCon=     1 RMS=1.61D-05 Max=1.76D-03 NDo=     1
 LinEq1:  Iter= 17 NonCon=     1 RMS=8.65D-06 Max=6.56D-04 NDo=     1
 LinEq1:  Iter= 18 NonCon=     1 RMS=5.29D-06 Max=4.00D-04 NDo=     1
 LinEq1:  Iter= 19 NonCon=     1 RMS=2.73D-06 Max=3.24D-04 NDo=     1
 LinEq1:  Iter= 20 NonCon=     1 RMS=1.27D-06 Max=2.17D-04 NDo=     1
 LinEq1:  Iter= 21 NonCon=     1 RMS=9.10D-07 Max=1.09D-04 NDo=     1
 LinEq1:  Iter= 22 NonCon=     1 RMS=5.29D-07 Max=8.65D-05 NDo=     1
 LinEq1:  Iter= 23 NonCon=     1 RMS=3.09D-07 Max=1.96D-05 NDo=     1
 LinEq1:  Iter= 24 NonCon=     1 RMS=2.27D-07 Max=2.71D-05 NDo=     1
 LinEq1:  Iter= 25 NonCon=     1 RMS=1.25D-07 Max=7.52D-06 NDo=     1
 LinEq1:  Iter= 26 NonCon=     1 RMS=9.28D-08 Max=7.17D-06 NDo=     1
 LinEq1:  Iter= 27 NonCon=     1 RMS=4.37D-08 Max=3.00D-06 NDo=     1
 LinEq1:  Iter= 28 NonCon=     1 RMS=2.27D-08 Max=1.95D-06 NDo=     1
 LinEq1:  Iter= 29 NonCon=     1 RMS=1.32D-08 Max=1.26D-06 NDo=     1
 LinEq1:  Iter= 30 NonCon=     1 RMS=6.86D-09 Max=8.27D-07 NDo=     1
 LinEq1:  Iter= 31 NonCon=     1 RMS=2.91D-09 Max=2.51D-07 NDo=     1
 LinEq1:  Iter= 32 NonCon=     1 RMS=1.50D-09 Max=8.59D-08 NDo=     1
 LinEq1:  Iter= 33 NonCon=     1 RMS=9.39D-10 Max=3.82D-08 NDo=     1
 LinEq1:  Iter= 34 NonCon=     1 RMS=4.34D-10 Max=2.08D-08 NDo=     1
 LinEq1:  Iter= 35 NonCon=     1 RMS=2.61D-10 Max=9.73D-09 NDo=     1
 LinEq1:  Iter= 36 NonCon=     1 RMS=1.25D-10 Max=6.99D-09 NDo=     1
 LinEq1:  Iter= 37 NonCon=     1 RMS=4.41D-11 Max=1.62D-09 NDo=     1
 LinEq1:  Iter= 38 NonCon=     1 RMS=2.02D-11 Max=1.19D-09 NDo=     1
 LinEq1:  Iter= 39 NonCon=     0 RMS=1.08D-11 Max=4.25D-10 NDo=     1
 Linear equations converged to 1.000D-10 1.000D-09 after    39 iterations.
 End of Minotr F.D. properties file   721 does not exist.
 End of Minotr F.D. properties file   722 does not exist.
 End of Minotr F.D. properties file   788 does not exist.

 **********************************************************************

            Population analysis using the CI Density.

 **********************************************************************

 Orbital symmetries:
 Alpha Orbitals:
       Occupied  (A) (A) (A) (A) (A) (A) (A) (A) (A) (A) (A) (A)
                 (A) (A) (A) (A) (A) (A) (A) (A) (A) (A) (A) (A)
                 (A) (A) (A) (A) (A) (A) (A) (A) (A) (A) (A) (A)
                 (A) (A) (A) (A) (A) (A) (A) (A) (A) (A) (A) (A)
                 (A) (A) (A) (A) (A) (A) (A) (A) (A) (A) (A) (A)
                 (A) (A) (A) (A) (A) (A) (A) (A) (A) (A) (A) (A)
                 (A) (A) (A) (A) (A) (A) (A) (A) (A) (A) (A) (A)
                 (A) (A) (A) (A) (A) (A) (A) (A) (A) (A) (A) (A)
                 (A) (A) (A) (A) (A) (A) (A) (A) (A) (A) (A) (A)
                 (A) (A) (A) (A) (A) (A) (A) (A) (A) (A) (A) (A)
                 (A) (A) (A) (A) (A) (A) (A) (A) (A) (A) (A) (A)
                 (A) (A)
       Virtual   (A) (A) (A) (A) (A) (A) (A) (A) (A) (A) (A) (A)
                 (A) (A) (A) (A) (A) (A) (A) (A) (A) (A) (A) (A)
                 (A) (A) (A) (A) (A) (A) (A) (A) (A) (A) (A) (A)
                 (A) (A) (A) (A) (A) (A) (A) (A) (A) (A) (A) (A)
                 (A) (A) (A) (A) (A) (A) (A) (A) (A) (A) (A) (A)
                 (A) (A) (A) (A) (A) (A) (A) (A) (A) (A) (A) (A)
                 (A) (A) (A) (A) (A) (A) (A) (A) (A) (A) (A) (A)
                 (A) (A) (A) (A) (A) (A) (A) (A) (A) (A) (A) (A)
                 (A) (A) (A) (A) (A) (A) (A) (A) (A) (A) (A) (A)
                 (A) (A) (A) (A) (A) (A) (A) (A) (A) (A) (A) (A)
                 (A) (A) (A) (A) (A) (A) (A) (A) (A) (A) (A) (A)
                 (A) (A) (A) (A) (A) (A) (A) (A) (A) (A) (A) (A)
                 (A) (A) (A) (A) (A) (A) (A) (A) (A) (A) (A) (A)
                 (A) (A) (A) (A) (A) (A) (A) (A) (A) (A) (A) (A)
                 (A) (A) (A) (A) (A) (A) (A) (A) (A) (A) (A) (A)
                 (A) (A) (A) (A) (A) (A) (A) (A) (A) (A) (A) (A)
                 (A) (A) (A) (A) (A) (A) (A) (A) (A) (A) (A) (A)
                 (A) (A) (A) (A) (A) (A) (A) (A) (A) (A) (A) (A)
                 (A) (A) (A) (A) (A) (A) (A) (A) (A) (A) (A) (A)
                 (A) (A) (A) (A) (A) (A) (A) (A) (A) (A) (A) (A)
                 (A) (A) (A) (A) (A) (A) (A) (A) (A) (A) (A) (A)
                 (A) (A) (A) (A) (A) (A) (A) (A) (A) (A) (A) (A)
                 (A) (A) (A) (A) (A) (A) (A) (A) (A) (A) (A) (A)
                 (A) (A) (A) (A) (A) (A) (A) (A) (A) (A) (A) (A)
                 (A) (A) (A) (A) (A) (A) (A) (A) (A) (A) (A) (A)
                 (A) (A) (A) (A) (A) (A) (A) (A) (A) (A) (A) (A)
                 (A) (A) (A) (A) (A) (A) (A) (A) (A) (A) (A) (A)
                 (A) (A) (A) (A) (A) (A) (A) (A) (A) (A) (A) (A)
                 (A) (A) (A) (A) (A) (A) (A) (A) (A) (A) (A) (A)
                 (A) (A) (A) (A) (A) (A) (A) (A) (A) (A) (A) (A)
                 (A) (A) (A) (A) (A) (A) (A) (A) (A) (A) (A) (A)
                 (A) (A) (A) (A) (A) (A) (A) (A) (A) (A) (A) (A)
                 (A) (A) (A) (A) (A) (A) (A) (A) (A) (A) (A) (A)
                 (A) (A) (A) (A) (A) (A) (A) (A) (A) (A) (A) (A)
                 (A) (A) (A) (A) (A) (A) (A) (A) (A) (A) (A) (A)
                 (A) (A) (A) (A) (A) (A) (A) (A) (A) (A) (A) (A)
                 (A) (A) (A) (A) (A) (A) (A) (A) (A) (A) (A) (A)
                 (A) (A) (A) (A) (A) (A) (A) (A) (A) (A) (A) (A)
                 (A) (A) (A) (A) (A) (A) (A) (A) (A) (A) (A) (A)
                 (A) (A) (A) (A) (A) (A) (A) (A) (A) (A) (A) (A)
                 (A) (A) (A) (A) (A) (A) (A) (A) (A) (A) (A) (A)
                 (A) (A) (A) (A) (A) (A) (A) (A) (A) (A) (A) (A)
                 (A) (A) (A) (A) (A) (A) (A) (A) (A) (A) (A) (A)
                 (A) (A) (A) (A) (A) (A) (A) (A) (A) (A) (A) (A)
                 (A) (A) (A) (A) (A) (A) (A) (A) (A) (A) (A) (A)
                 (A) (A) (A) (A) (A) (A) (A) (A) (A) (A)
 Beta  Orbitals:
       Occupied  (A) (A) (A) (A) (A) (A) (A) (A) (A) (A) (A) (A)
                 (A) (A) (A) (A) (A) (A) (A) (A) (A) (A) (A) (A)
                 (A) (A) (A) (A) (A) (A) (A) (A) (A) (A) (A) (A)
                 (A) (A) (A) (A) (A) (A) (A) (A) (A) (A) (A) (A)
                 (A) (A) (A) (A) (A) (A) (A) (A) (A) (A) (A) (A)
                 (A) (A) (A) (A) (A) (A) (A) (A) (A) (A) (A) (A)
                 (A) (A) (A) (A) (A) (A) (A) (A) (A) (A) (A) (A)
                 (A) (A) (A) (A) (A) (A) (A) (A) (A) (A) (A) (A)
                 (A) (A) (A) (A) (A) (A) (A) (A) (A) (A) (A) (A)
                 (A) (A) (A) (A) (A) (A) (A) (A) (A) (A) (A) (A)
                 (A) (A) (A) (A) (A) (A) (A) (A) (A) (A) (A) (A)
       Virtual   (A) (A) (A) (A) (A) (A) (A) (A) (A) (A) (A) (A)
                 (A) (A) (A) (A) (A) (A) (A) (A) (A) (A) (A) (A)
                 (A) (A) (A) (A) (A) (A) (A) (A) (A) (A) (A) (A)
                 (A) (A) (A) (A) (A) (A) (A) (A) (A) (A) (A) (A)
                 (A) (A) (A) (A) (A) (A) (A) (A) (A) (A) (A) (A)
                 (A) (A) (A) (A) (A) (A) (A) (A) (A) (A) (A) (A)
                 (A) (A) (A) (A) (A) (A) (A) (A) (A) (A) (A) (A)
                 (A) (A) (A) (A) (A) (A) (A) (A) (A) (A) (A) (A)
                 (A) (A) (A) (A) (A) (A) (A) (A) (A) (A) (A) (A)
                 (A) (A) (A) (A) (A) (A) (A) (A) (A) (A) (A) (A)
                 (A) (A) (A) (A) (A) (A) (A) (A) (A) (A) (A) (A)
                 (A) (A) (A) (A) (A) (A) (A) (A) (A) (A) (A) (A)
                 (A) (A) (A) (A) (A) (A) (A) (A) (A) (A) (A) (A)
                 (A) (A) (A) (A) (A) (A) (A) (A) (A) (A) (A) (A)
                 (A) (A) (A) (A) (A) (A) (A) (A) (A) (A) (A) (A)
                 (A) (A) (A) (A) (A) (A) (A) (A) (A) (A) (A) (A)
                 (A) (A) (A) (A) (A) (A) (A) (A) (A) (A) (A) (A)
                 (A) (A) (A) (A) (A) (A) (A) (A) (A) (A) (A) (A)
                 (A) (A) (A) (A) (A) (A) (A) (A) (A) (A) (A) (A)
                 (A) (A) (A) (A) (A) (A) (A) (A) (A) (A) (A) (A)
                 (A) (A) (A) (A) (A) (A) (A) (A) (A) (A) (A) (A)
                 (A) (A) (A) (A) (A) (A) (A) (A) (A) (A) (A) (A)
                 (A) (A) (A) (A) (A) (A) (A) (A) (A) (A) (A) (A)
                 (A) (A) (A) (A) (A) (A) (A) (A) (A) (A) (A) (A)
                 (A) (A) (A) (A) (A) (A) (A) (A) (A) (A) (A) (A)
                 (A) (A) (A) (A) (A) (A) (A) (A) (A) (A) (A) (A)
                 (A) (A) (A) (A) (A) (A) (A) (A) (A) (A) (A) (A)
                 (A) (A) (A) (A) (A) (A) (A) (A) (A) (A) (A) (A)
                 (A) (A) (A) (A) (A) (A) (A) (A) (A) (A) (A) (A)
                 (A) (A) (A) (A) (A) (A) (A) (A) (A) (A) (A) (A)
                 (A) (A) (A) (A) (A) (A) (A) (A) (A) (A) (A) (A)
                 (A) (A) (A) (A) (A) (A) (A) (A) (A) (A) (A) (A)
                 (A) (A) (A) (A) (A) (A) (A) (A) (A) (A) (A) (A)
                 (A) (A) (A) (A) (A) (A) (A) (A) (A) (A) (A) (A)
                 (A) (A) (A) (A) (A) (A) (A) (A) (A) (A) (A) (A)
                 (A) (A) (A) (A) (A) (A) (A) (A) (A) (A) (A) (A)
                 (A) (A) (A) (A) (A) (A) (A) (A) (A) (A) (A) (A)
                 (A) (A) (A) (A) (A) (A) (A) (A) (A) (A) (A) (A)
                 (A) (A) (A) (A) (A) (A) (A) (A) (A) (A) (A) (A)
                 (A) (A) (A) (A) (A) (A) (A) (A) (A) (A) (A) (A)
                 (A) (A) (A) (A) (A) (A) (A) (A) (A) (A) (A) (A)
                 (A) (A) (A) (A) (A) (A) (A) (A) (A) (A) (A) (A)
                 (A) (A) (A) (A) (A) (A) (A) (A) (A) (A) (A) (A)
                 (A) (A) (A) (A) (A) (A) (A) (A) (A) (A) (A) (A)
                 (A) (A) (A) (A) (A) (A) (A) (A) (A) (A) (A) (A)
                 (A) (A) (A) (A) (A) (A) (A) (A) (A) (A) (A) (A)
 The electronic state is 3-A.
 Alpha  occ. eigenvalues --  -77.08037 -77.07972 -19.19530 -19.10253 -19.10233
 Alpha  occ. eigenvalues --  -14.30803 -10.28135 -10.20752 -10.20729 -10.20538
 Alpha  occ. eigenvalues --  -10.20532 -10.20026 -10.20020 -10.18479 -10.18461
 Alpha  occ. eigenvalues --  -10.17488 -10.17480 -10.17345 -10.17344 -10.17336
 Alpha  occ. eigenvalues --  -10.17326 -10.17162 -10.17149 -10.16945 -10.16914
 Alpha  occ. eigenvalues --  -10.16568 -10.16548 -10.16202 -10.16199 -10.15081
 Alpha  occ. eigenvalues --   -6.57243  -6.57181  -4.73831  -4.73799  -4.73770
 Alpha  occ. eigenvalues --   -4.73738  -4.73585  -4.73520  -3.06403  -1.90823
 Alpha  occ. eigenvalues --   -1.90765  -1.88901  -1.09793  -0.92421  -0.91366
 Alpha  occ. eigenvalues --   -0.90425  -0.81876  -0.81637  -0.79470  -0.79460
 Alpha  occ. eigenvalues --   -0.77523  -0.75838  -0.72312  -0.68304  -0.67869
 Alpha  occ. eigenvalues --   -0.67700  -0.67393  -0.67301  -0.66892  -0.66873
 Alpha  occ. eigenvalues --   -0.66545  -0.66525  -0.62784  -0.60968  -0.57751
 Alpha  occ. eigenvalues --   -0.57098  -0.55189  -0.54127  -0.54110  -0.50710
 Alpha  occ. eigenvalues --   -0.50476  -0.48580  -0.47451  -0.46488  -0.46198
 Alpha  occ. eigenvalues --   -0.45829  -0.45351  -0.45258  -0.44677  -0.44394
 Alpha  occ. eigenvalues --   -0.44134  -0.43930  -0.43611  -0.43509  -0.43317
 Alpha  occ. eigenvalues --   -0.43102  -0.42868  -0.42338  -0.42178  -0.41859
 Alpha  occ. eigenvalues --   -0.41697  -0.40550  -0.40534  -0.39799  -0.38970
 Alpha  occ. eigenvalues --   -0.38478  -0.38261  -0.38013  -0.37965  -0.37200
 Alpha  occ. eigenvalues --   -0.37170  -0.37072  -0.37018  -0.36236  -0.35965
 Alpha  occ. eigenvalues --   -0.35818  -0.35609  -0.35582  -0.35064  -0.34653
 Alpha  occ. eigenvalues --   -0.34436  -0.33958  -0.33860  -0.33812  -0.33361
 Alpha  occ. eigenvalues --   -0.32895  -0.32717  -0.32273  -0.32149  -0.31615
 Alpha  occ. eigenvalues --   -0.31192  -0.31120  -0.29871  -0.29465  -0.29064
 Alpha  occ. eigenvalues --   -0.28980  -0.28785  -0.27876  -0.26609  -0.23585
 Alpha  occ. eigenvalues --   -0.23531  -0.23020  -0.21595  -0.08142
 Alpha virt. eigenvalues --   -0.04127  -0.00675   0.00498   0.00525   0.00617
 Alpha virt. eigenvalues --    0.05065   0.05515   0.05951   0.06456   0.07000
 Alpha virt. eigenvalues --    0.07838   0.07919   0.08175   0.08437   0.08795
 Alpha virt. eigenvalues --    0.09153   0.09566   0.10084   0.10457   0.10879
 Alpha virt. eigenvalues --    0.11019   0.11247   0.11449   0.11733   0.12153
 Alpha virt. eigenvalues --    0.12395   0.12937   0.13176   0.13461   0.13948
 Alpha virt. eigenvalues --    0.14117   0.14359   0.14654   0.15014   0.15342
 Alpha virt. eigenvalues --    0.15499   0.15891   0.16368   0.16544   0.16817
 Alpha virt. eigenvalues --    0.17275   0.17406   0.17555   0.17746   0.17963
 Alpha virt. eigenvalues --    0.18238   0.18361   0.18599   0.19152   0.20254
 Alpha virt. eigenvalues --    0.20457   0.20472   0.20846   0.20882   0.21485
 Alpha virt. eigenvalues --    0.21499   0.21594   0.22061   0.22378   0.22881
 Alpha virt. eigenvalues --    0.22997   0.23930   0.24171   0.24371   0.24846
 Alpha virt. eigenvalues --    0.25213   0.25294   0.25768   0.25793   0.26530
 Alpha virt. eigenvalues --    0.27974   0.28047   0.30000   0.30447   0.31217
 Alpha virt. eigenvalues --    0.31435   0.32277   0.33176   0.33350   0.34818
 Alpha virt. eigenvalues --    0.35391   0.37315   0.38122   0.39398   0.39662
 Alpha virt. eigenvalues --    0.40095   0.40988   0.41021   0.41394   0.42033
 Alpha virt. eigenvalues --    0.42954   0.43408   0.43740   0.43913   0.44018
 Alpha virt. eigenvalues --    0.44618   0.44930   0.45389   0.45865   0.47019
 Alpha virt. eigenvalues --    0.47528   0.47736   0.48819   0.49696   0.49975
 Alpha virt. eigenvalues --    0.50875   0.50934   0.51823   0.52854   0.53222
 Alpha virt. eigenvalues --    0.53718   0.53904   0.54239   0.54758   0.55263
 Alpha virt. eigenvalues --    0.55529   0.56804   0.57209   0.57930   0.58199
 Alpha virt. eigenvalues --    0.58378   0.58914   0.59555   0.59614   0.60064
 Alpha virt. eigenvalues --    0.60235   0.60530   0.61171   0.61408   0.61540
 Alpha virt. eigenvalues --    0.62147   0.62851   0.63126   0.63874   0.64042
 Alpha virt. eigenvalues --    0.64209   0.64245   0.64370   0.64843   0.64907
 Alpha virt. eigenvalues --    0.65427   0.65756   0.65901   0.65987   0.66244
 Alpha virt. eigenvalues --    0.66523   0.66952   0.67174   0.67384   0.67414
 Alpha virt. eigenvalues --    0.67934   0.68018   0.68388   0.68403   0.69039
 Alpha virt. eigenvalues --    0.69236   0.69313   0.69638   0.70041   0.70068
 Alpha virt. eigenvalues --    0.70474   0.70663   0.70741   0.71040   0.71562
 Alpha virt. eigenvalues --    0.71723   0.72023   0.72262   0.72470   0.73021
 Alpha virt. eigenvalues --    0.73426   0.73668   0.73692   0.73818   0.74395
 Alpha virt. eigenvalues --    0.74464   0.74691   0.74744   0.75077   0.75285
 Alpha virt. eigenvalues --    0.75770   0.75968   0.76237   0.76863   0.77111
 Alpha virt. eigenvalues --    0.77371   0.78183   0.78274   0.78539   0.79111
 Alpha virt. eigenvalues --    0.79651   0.79907   0.80182   0.80370   0.80947
 Alpha virt. eigenvalues --    0.81542   0.81570   0.81954   0.82294   0.82780
 Alpha virt. eigenvalues --    0.83005   0.83588   0.84046   0.84604   0.84795
 Alpha virt. eigenvalues --    0.84859   0.86212   0.86766   0.87884   0.88101
 Alpha virt. eigenvalues --    0.88309   0.89745   0.89911   0.91381   0.91518
 Alpha virt. eigenvalues --    0.91986   0.92885   0.93543   0.94390   0.96250
 Alpha virt. eigenvalues --    0.96703   0.97052   0.98954   0.99137   1.01290
 Alpha virt. eigenvalues --    1.01994   1.02413   1.03479   1.03770   1.05244
 Alpha virt. eigenvalues --    1.05319   1.05903   1.06243   1.06670   1.07603
 Alpha virt. eigenvalues --    1.08697   1.09706   1.10694   1.11249   1.11355
 Alpha virt. eigenvalues --    1.12345   1.14494   1.15074   1.15109   1.16246
 Alpha virt. eigenvalues --    1.16828   1.18124   1.18319   1.18983   1.19707
 Alpha virt. eigenvalues --    1.20426   1.20479   1.21231   1.21969   1.23204
 Alpha virt. eigenvalues --    1.23812   1.24444   1.24886   1.24990   1.26076
 Alpha virt. eigenvalues --    1.27188   1.27468   1.28420   1.28766   1.29003
 Alpha virt. eigenvalues --    1.29292   1.30185   1.30847   1.31096   1.32042
 Alpha virt. eigenvalues --    1.33519   1.35213   1.35527   1.35588   1.39103
 Alpha virt. eigenvalues --    1.41716   1.43892   1.43904   1.44763   1.45909
 Alpha virt. eigenvalues --    1.49267   1.49938   1.50756   1.51129   1.51503
 Alpha virt. eigenvalues --    1.52265   1.52496   1.52563   1.53126   1.54121
 Alpha virt. eigenvalues --    1.54593   1.54993   1.55364   1.55684   1.56054
 Alpha virt. eigenvalues --    1.56129   1.56297   1.57045   1.57590   1.57662
 Alpha virt. eigenvalues --    1.57795   1.58125   1.58435   1.58884   1.59587
 Alpha virt. eigenvalues --    1.59685   1.60358   1.60446   1.61058   1.61539
 Alpha virt. eigenvalues --    1.62212   1.63134   1.63855   1.64472   1.64620
 Alpha virt. eigenvalues --    1.65658   1.66809   1.68314   1.68715   1.69120
 Alpha virt. eigenvalues --    1.69539   1.70446   1.71220   1.71873   1.72241
 Alpha virt. eigenvalues --    1.74524   1.74926   1.75058   1.75692   1.76350
 Alpha virt. eigenvalues --    1.76750   1.77313   1.77414   1.77626   1.77903
 Alpha virt. eigenvalues --    1.78645   1.78679   1.79377   1.79801   1.79886
 Alpha virt. eigenvalues --    1.80876   1.81391   1.81621   1.81970   1.82436
 Alpha virt. eigenvalues --    1.82698   1.83151   1.83416   1.83453   1.83865
 Alpha virt. eigenvalues --    1.84104   1.84350   1.84715   1.84840   1.85405
 Alpha virt. eigenvalues --    1.85699   1.85989   1.86689   1.86846   1.87721
 Alpha virt. eigenvalues --    1.87963   1.88946   1.89446   1.89578   1.90214
 Alpha virt. eigenvalues --    1.90237   1.91199   1.91243   1.91576   1.92564
 Alpha virt. eigenvalues --    1.93035   1.93201   1.93725   1.93931   1.93999
 Alpha virt. eigenvalues --    1.94442   1.94501   1.95284   1.95449   1.95504
 Alpha virt. eigenvalues --    1.95580   1.95931   1.97071   1.97635   1.98224
 Alpha virt. eigenvalues --    1.98413   1.98553   1.98801   1.99918   2.00314
 Alpha virt. eigenvalues --    2.00664   2.01394   2.01588   2.01812   2.02366
 Alpha virt. eigenvalues --    2.02928   2.03081   2.03242   2.03597   2.04988
 Alpha virt. eigenvalues --    2.05216   2.05713   2.08642   2.09577   2.10493
 Alpha virt. eigenvalues --    2.13111   2.14666   2.16205   2.16690   2.16977
 Alpha virt. eigenvalues --    2.17340   2.17872   2.17972   2.18166   2.18366
 Alpha virt. eigenvalues --    2.18947   2.19140   2.19455   2.20218   2.20597
 Alpha virt. eigenvalues --    2.21412   2.21464   2.21781   2.23405   2.23458
 Alpha virt. eigenvalues --    2.24012   2.24849   2.25097   2.25302   2.26625
 Alpha virt. eigenvalues --    2.26681   2.29714   2.29793   2.30850   2.31391
 Alpha virt. eigenvalues --    2.32116   2.37044   2.38595   2.38689   2.39256
 Alpha virt. eigenvalues --    2.39368   2.40774   2.40847   2.41128   2.41684
 Alpha virt. eigenvalues --    2.42028   2.42099   2.43129   2.43236   2.43679
 Alpha virt. eigenvalues --    2.45465   2.45515   2.47164   2.47445   2.48372
 Alpha virt. eigenvalues --    2.49029   2.49074   2.52468   2.52656   2.55379
 Alpha virt. eigenvalues --    2.55585   2.56034   2.56093   2.56373   2.56576
 Alpha virt. eigenvalues --    2.56844   2.57067   2.57885   2.58015   2.62174
 Alpha virt. eigenvalues --    2.62219   2.62616   2.62744   2.62779   2.63030
 Alpha virt. eigenvalues --    2.63481   2.63712   2.63908   2.64010   2.64348
 Alpha virt. eigenvalues --    2.64453   2.65234   2.65276   2.66114   2.68566
 Alpha virt. eigenvalues --    2.69706   2.70999   2.72763   2.73255   2.73591
 Alpha virt. eigenvalues --    2.74199   2.74225   2.76940   2.78381   2.80423
 Alpha virt. eigenvalues --    2.84912   2.85394   2.86580   2.87312   2.87355
 Alpha virt. eigenvalues --    2.87537   2.88576   2.89211   2.89241   2.89903
 Alpha virt. eigenvalues --    2.89908   2.90446   2.90855   2.91626   2.92955
 Alpha virt. eigenvalues --    2.93640   2.93981   2.94373   2.94924   2.95326
 Alpha virt. eigenvalues --    2.95532   2.96014   2.96733   2.96749   2.96986
 Alpha virt. eigenvalues --    2.97022   2.98409   2.98759   2.99097   3.00735
 Alpha virt. eigenvalues --    3.01181   3.01768   3.02273   3.03133   3.04940
 Alpha virt. eigenvalues --    3.06441   3.06633   3.07307   3.07651   3.08373
 Alpha virt. eigenvalues --    3.08451   3.09367   3.09910   3.10778   3.11815
 Alpha virt. eigenvalues --    3.12326   3.12550   3.18234   3.18386   3.35887
 Alpha virt. eigenvalues --    3.58926   3.71696   3.81278   3.82105  45.33320
  Beta  occ. eigenvalues --  -77.08041 -77.07975 -19.19520 -19.09767 -19.09754
  Beta  occ. eigenvalues --  -14.30209 -10.28138 -10.20754 -10.20731 -10.20534
  Beta  occ. eigenvalues --  -10.20527 -10.19758 -10.19751 -10.18504 -10.18486
  Beta  occ. eigenvalues --  -10.17487 -10.17480 -10.17344 -10.17344 -10.17336
  Beta  occ. eigenvalues --  -10.17326 -10.17158 -10.17145 -10.16942 -10.16911
  Beta  occ. eigenvalues --  -10.16563 -10.16542 -10.16289 -10.16286 -10.14430
  Beta  occ. eigenvalues --   -6.57248  -6.57185  -4.73826  -4.73802  -4.73765
  Beta  occ. eigenvalues --   -4.73741  -4.73600  -4.73534  -3.03672  -1.87903
  Beta  occ. eigenvalues --   -1.86864  -1.86684  -1.09777  -0.91344  -0.90240
  Beta  occ. eigenvalues --   -0.89525  -0.81849  -0.81621  -0.79460  -0.79453
  Beta  occ. eigenvalues --   -0.77147  -0.75032  -0.72134  -0.68217  -0.67864
  Beta  occ. eigenvalues --   -0.67665  -0.67384  -0.67268  -0.66887  -0.66867
  Beta  occ. eigenvalues --   -0.66535  -0.66514  -0.62431  -0.60947  -0.56949
  Beta  occ. eigenvalues --   -0.56904  -0.55086  -0.54117  -0.54102  -0.50661
  Beta  occ. eigenvalues --   -0.50409  -0.48403  -0.47188  -0.46309  -0.46089
  Beta  occ. eigenvalues --   -0.45583  -0.45167  -0.45056  -0.44665  -0.44227
  Beta  occ. eigenvalues --   -0.43960  -0.43866  -0.43537  -0.43458  -0.43137
  Beta  occ. eigenvalues --   -0.42975  -0.42642  -0.42263  -0.42159  -0.41741
  Beta  occ. eigenvalues --   -0.41590  -0.40341  -0.40169  -0.39736  -0.38926
  Beta  occ. eigenvalues --   -0.38442  -0.38035  -0.37868  -0.37784  -0.37183
  Beta  occ. eigenvalues --   -0.37150  -0.37059  -0.36880  -0.35976  -0.35924
  Beta  occ. eigenvalues --   -0.35769  -0.35570  -0.34851  -0.34762  -0.34472
  Beta  occ. eigenvalues --   -0.33937  -0.33749  -0.33729  -0.33183  -0.32842
  Beta  occ. eigenvalues --   -0.32708  -0.32233  -0.32201  -0.31895  -0.30780
  Beta  occ. eigenvalues --   -0.30676  -0.29819  -0.29405  -0.28788  -0.28504
  Beta  occ. eigenvalues --   -0.28408  -0.27633  -0.25973  -0.24726  -0.22357
  Beta  occ. eigenvalues --   -0.22082  -0.21783
  Beta virt. eigenvalues --   -0.09932  -0.03398  -0.01405   0.00502   0.01092
  Beta virt. eigenvalues --    0.01296   0.01337   0.05160   0.05615   0.06196
  Beta virt. eigenvalues --    0.06503   0.07105   0.07970   0.08092   0.08323
  Beta virt. eigenvalues --    0.08544   0.08956   0.09264   0.09780   0.10313
  Beta virt. eigenvalues --    0.10524   0.10943   0.11156   0.11340   0.11500
  Beta virt. eigenvalues --    0.11786   0.12215   0.12684   0.12998   0.13208
  Beta virt. eigenvalues --    0.13545   0.13969   0.14204   0.14401   0.14678
  Beta virt. eigenvalues --    0.15102   0.15434   0.15988   0.16413   0.16583
  Beta virt. eigenvalues --    0.16651   0.16878   0.17319   0.17434   0.17686
  Beta virt. eigenvalues --    0.18023   0.18138   0.18289   0.18440   0.18634
  Beta virt. eigenvalues --    0.19249   0.20316   0.20562   0.20572   0.20882
  Beta virt. eigenvalues --    0.20927   0.21520   0.21547   0.21622   0.22115
  Beta virt. eigenvalues --    0.22495   0.22940   0.23027   0.23984   0.24219
  Beta virt. eigenvalues --    0.24596   0.24923   0.25294   0.25345   0.25879
  Beta virt. eigenvalues --    0.25983   0.26741   0.28077   0.28141   0.30201
  Beta virt. eigenvalues --    0.30853   0.31376   0.31692   0.32660   0.33369
  Beta virt. eigenvalues --    0.33521   0.35057   0.35569   0.37395   0.38226
  Beta virt. eigenvalues --    0.39568   0.39699   0.40208   0.41036   0.41211
  Beta virt. eigenvalues --    0.41470   0.42134   0.43186   0.43501   0.43984
  Beta virt. eigenvalues --    0.44017   0.44156   0.44760   0.45142   0.45586
  Beta virt. eigenvalues --    0.46085   0.47443   0.47684   0.47948   0.48920
  Beta virt. eigenvalues --    0.49868   0.50152   0.51242   0.51567   0.52024
  Beta virt. eigenvalues --    0.53057   0.53262   0.53993   0.54438   0.54498
  Beta virt. eigenvalues --    0.54873   0.55427   0.55692   0.57002   0.57415
  Beta virt. eigenvalues --    0.58132   0.58282   0.58949   0.59003   0.59634
  Beta virt. eigenvalues --    0.59713   0.60168   0.60351   0.60595   0.61243
  Beta virt. eigenvalues --    0.61584   0.61803   0.62185   0.62922   0.63184
  Beta virt. eigenvalues --    0.63962   0.64170   0.64274   0.64399   0.64800
  Beta virt. eigenvalues --    0.64945   0.65060   0.65471   0.65805   0.65929
  Beta virt. eigenvalues --    0.66053   0.66415   0.66667   0.67010   0.67247
  Beta virt. eigenvalues --    0.67505   0.67578   0.68001   0.68048   0.68455
  Beta virt. eigenvalues --    0.68458   0.69086   0.69335   0.69367   0.69706
  Beta virt. eigenvalues --    0.70124   0.70176   0.70503   0.70744   0.70769
  Beta virt. eigenvalues --    0.71136   0.71593   0.71877   0.72328   0.72392
  Beta virt. eigenvalues --    0.72552   0.73072   0.73513   0.73734   0.73752
  Beta virt. eigenvalues --    0.73920   0.74508   0.74543   0.74754   0.74835
  Beta virt. eigenvalues --    0.75219   0.75387   0.75810   0.76068   0.76322
  Beta virt. eigenvalues --    0.76955   0.77205   0.77437   0.78279   0.78354
  Beta virt. eigenvalues --    0.78636   0.79304   0.79724   0.79994   0.80368
  Beta virt. eigenvalues --    0.80433   0.81013   0.81569   0.81648   0.82268
  Beta virt. eigenvalues --    0.82483   0.82827   0.83028   0.83727   0.84086
  Beta virt. eigenvalues --    0.84705   0.84860   0.85018   0.86279   0.86836
  Beta virt. eigenvalues --    0.87964   0.88237   0.88382   0.89870   0.90120
  Beta virt. eigenvalues --    0.91467   0.91648   0.92105   0.92994   0.93647
  Beta virt. eigenvalues --    0.94513   0.96587   0.96899   0.97215   0.99227
  Beta virt. eigenvalues --    0.99335   1.01465   1.02149   1.02553   1.03637
  Beta virt. eigenvalues --    1.03928   1.05351   1.05439   1.06079   1.06340
  Beta virt. eigenvalues --    1.06860   1.07742   1.08773   1.09827   1.10767
  Beta virt. eigenvalues --    1.11398   1.11809   1.12481   1.14656   1.15145
  Beta virt. eigenvalues --    1.15213   1.16395   1.17072   1.18430   1.18475
  Beta virt. eigenvalues --    1.19083   1.19775   1.20541   1.20613   1.21458
  Beta virt. eigenvalues --    1.22099   1.23241   1.23983   1.24593   1.25109
  Beta virt. eigenvalues --    1.25174   1.26867   1.27777   1.27822   1.28626
  Beta virt. eigenvalues --    1.29062   1.29266   1.29735   1.30641   1.30892
  Beta virt. eigenvalues --    1.31347   1.32337   1.33617   1.35338   1.35884
  Beta virt. eigenvalues --    1.35912   1.39326   1.41912   1.44087   1.44164
  Beta virt. eigenvalues --    1.45140   1.46235   1.49369   1.50009   1.51010
  Beta virt. eigenvalues --    1.51196   1.51557   1.52347   1.52624   1.52709
  Beta virt. eigenvalues --    1.53171   1.54157   1.54751   1.55012   1.55399
  Beta virt. eigenvalues --    1.55853   1.56084   1.56235   1.56330   1.57190
  Beta virt. eigenvalues --    1.57687   1.57709   1.57859   1.58253   1.58548
  Beta virt. eigenvalues --    1.58955   1.59760   1.59820   1.60508   1.60615
  Beta virt. eigenvalues --    1.61211   1.61592   1.62393   1.63386   1.64088
  Beta virt. eigenvalues --    1.64674   1.64699   1.66291   1.66880   1.68371
  Beta virt. eigenvalues --    1.68923   1.69413   1.69710   1.70633   1.71981
  Beta virt. eigenvalues --    1.72042   1.72421   1.74673   1.75242   1.75348
  Beta virt. eigenvalues --    1.75857   1.76666   1.77041   1.77375   1.77470
  Beta virt. eigenvalues --    1.77671   1.77963   1.78762   1.78855   1.79469
  Beta virt. eigenvalues --    1.79993   1.80030   1.80928   1.81474   1.82179
  Beta virt. eigenvalues --    1.82206   1.82551   1.82857   1.83207   1.83492
  Beta virt. eigenvalues --    1.83566   1.84147   1.84216   1.84469   1.84807
  Beta virt. eigenvalues --    1.85038   1.85740   1.86033   1.86818   1.86906
  Beta virt. eigenvalues --    1.87781   1.88082   1.88658   1.89094   1.89696
  Beta virt. eigenvalues --    1.90036   1.90505   1.90664   1.91257   1.91283
  Beta virt. eigenvalues --    1.92044   1.92578   1.93121   1.93578   1.93817
  Beta virt. eigenvalues --    1.93970   1.94097   1.94484   1.94714   1.95346
  Beta virt. eigenvalues --    1.95590   1.95792   1.95852   1.96870   1.97239
  Beta virt. eigenvalues --    1.97811   1.98597   1.98668   1.98811   1.99471
  Beta virt. eigenvalues --    2.00018   2.00463   2.00748   2.01528   2.01902
  Beta virt. eigenvalues --    2.01999   2.02864   2.03101   2.03231   2.03908
  Beta virt. eigenvalues --    2.04245   2.05031   2.05514   2.06550   2.09252
  Beta virt. eigenvalues --    2.09761   2.10629   2.13703   2.15250   2.16435
  Beta virt. eigenvalues --    2.16734   2.17049   2.17406   2.17903   2.18049
  Beta virt. eigenvalues --    2.18247   2.18413   2.19213   2.19267   2.19569
  Beta virt. eigenvalues --    2.20268   2.20651   2.21452   2.21491   2.21867
  Beta virt. eigenvalues --    2.23465   2.23506   2.24085   2.24986   2.25236
  Beta virt. eigenvalues --    2.25482   2.26924   2.27055   2.29928   2.30093
  Beta virt. eigenvalues --    2.31366   2.31707   2.32410   2.37346   2.38653
  Beta virt. eigenvalues --    2.38742   2.39283   2.39822   2.40865   2.40909
  Beta virt. eigenvalues --    2.41326   2.41950   2.42418   2.42626   2.43288
  Beta virt. eigenvalues --    2.43300   2.43724   2.45568   2.46337   2.47216
  Beta virt. eigenvalues --    2.47590   2.48506   2.49132   2.49239   2.52818
  Beta virt. eigenvalues --    2.52877   2.55413   2.55596   2.56057   2.56156
  Beta virt. eigenvalues --    2.56380   2.56614   2.56919   2.57087   2.58183
  Beta virt. eigenvalues --    2.58355   2.62206   2.62234   2.62665   2.62755
  Beta virt. eigenvalues --    2.62792   2.63088   2.63561   2.63733   2.64018
  Beta virt. eigenvalues --    2.64037   2.64413   2.64495   2.65281   2.65791
  Beta virt. eigenvalues --    2.66557   2.68875   2.70128   2.71859   2.72829
  Beta virt. eigenvalues --    2.73450   2.73839   2.74319   2.74471   2.78304
  Beta virt. eigenvalues --    2.79141   2.81501   2.85456   2.85481   2.86707
  Beta virt. eigenvalues --    2.87330   2.87539   2.87579   2.88793   2.89246
  Beta virt. eigenvalues --    2.89406   2.89924   2.90354   2.90773   2.90882
  Beta virt. eigenvalues --    2.91804   2.92993   2.93681   2.94184   2.94453
  Beta virt. eigenvalues --    2.95153   2.95353   2.95992   2.96050   2.96791
  Beta virt. eigenvalues --    2.96807   2.97072   2.97264   2.98537   2.98954
  Beta virt. eigenvalues --    2.99225   3.00910   3.01866   3.02169   3.02901
  Beta virt. eigenvalues --    3.03469   3.04976   3.06514   3.06653   3.07458
  Beta virt. eigenvalues --    3.07901   3.08383   3.08628   3.09412   3.10019
  Beta virt. eigenvalues --    3.11126   3.11851   3.12592   3.12873   3.18266
  Beta virt. eigenvalues --    3.18467   3.36175   3.59171   3.71738   3.81751
  Beta virt. eigenvalues --    3.82555  45.27604
          Condensed to atoms (all electrons):
          Atomic-Atomic Spin Densities.
 Mulliken charges and spin densities:
               1          2
     1  O   -0.461545   0.061851
     2  P    0.332586   0.000663
     3  O   -0.073541   0.078940
     4  N   -0.310632   0.250944
     5  C    0.007827  -0.018804
     6  H    0.048592   0.000516
     7  H    0.076331   0.011848
     8  O   -0.463586   0.060536
     9  P    0.329590   0.001107
    10  C    0.013952   0.202312
    11  C   -0.059460  -0.094799
    12  H   -0.025629   0.002105
    13  C   -0.066602   0.517718
    14  H   -0.029586  -0.026430
    15  C   -0.059132  -0.095017
    16  H   -0.025613   0.002114
    17  C    0.013752   0.202565
    18  C    0.007647  -0.018801
    19  H    0.048306   0.000508
    20  H    0.076262   0.011868
    21  C   -0.393211  -0.001864
    22  C   -0.374870  -0.000346
    23  C    0.080336  -0.000195
    24  H    0.009094   0.000242
    25  H    0.022350   0.000222
    26  H    0.027595  -0.000539
    27  C    0.067766   0.000088
    28  H    0.013798   0.000045
    29  H    0.029890   0.000035
    30  H    0.035824   0.000003
    31  Ru  -0.026218   0.792319
    32  C    0.081698   0.000216
    33  H    0.013969  -0.000111
    34  H    0.011194  -0.000009
    35  H    0.022194   0.000097
    36  C    0.081657   0.000874
    37  H    0.007804   0.000327
    38  H    0.005959  -0.000017
    39  H    0.011931  -0.000392
    40  C    0.071964   0.002080
    41  H    0.006118   0.000083
    42  H    0.042993   0.000935
    43  H    0.010349   0.001584
    44  C    0.079767  -0.000027
    45  H    0.010016  -0.000264
    46  H    0.027972   0.000132
    47  H    0.030604   0.000056
    48  C   -0.393573  -0.001867
    49  C   -0.378846  -0.000291
    50  C    0.067799   0.000092
    51  H    0.013700   0.000048
    52  H    0.029786   0.000030
    53  H    0.035795   0.000003
    54  C    0.081806   0.000223
    55  H    0.013790  -0.000108
    56  H    0.011143  -0.000010
    57  H    0.022057   0.000096
    58  C    0.080779  -0.000186
    59  H    0.008913   0.000244
    60  H    0.022137   0.000207
    61  H    0.027643  -0.000516
    62  C    0.081436   0.000865
    63  H    0.008591   0.000339
    64  H    0.006719  -0.000017
    65  H    0.010771  -0.000379
    66  C    0.071789   0.002091
    67  H    0.006741   0.000090
    68  H    0.042357   0.000975
    69  H    0.011093   0.001583
    70  C    0.080157  -0.000021
    71  H    0.010174  -0.000258
    72  H    0.027997   0.000126
    73  H    0.030793   0.000056
    74  C    0.156018   0.028057
    75  H    0.212155   0.010596
    76  H    0.212219   0.010613
 Sum of Mulliken charges =  -0.00000   2.00000
 Mulliken charges and spin densities with hydrogens summed into heavy atoms:
               1          2
     1  O   -0.249326   0.072464
     2  P    0.332586   0.000663
     3  O   -0.073541   0.078940
     4  N   -0.310632   0.250944
     5  C    0.132750  -0.006440
     8  O   -0.251430   0.071132
     9  P    0.329590   0.001107
    10  C    0.013952   0.202312
    11  C   -0.085090  -0.092694
    13  C   -0.096188   0.491288
    15  C   -0.084745  -0.092903
    17  C    0.013752   0.202565
    18  C    0.132214  -0.006425
    21  C   -0.393211  -0.001864
    22  C   -0.374870  -0.000346
    23  C    0.139375  -0.000270
    27  C    0.147278   0.000171
    31  Ru  -0.026218   0.792319
    32  C    0.129056   0.000193
    36  C    0.107351   0.000792
    40  C    0.131423   0.004681
    44  C    0.148359  -0.000103
    48  C   -0.393573  -0.001867
    49  C   -0.378846  -0.000291
    50  C    0.147080   0.000174
    54  C    0.128796   0.000201
    58  C    0.139473  -0.000251
    62  C    0.107517   0.000809
    66  C    0.131980   0.004739
    70  C    0.149122  -0.000097
    74  C    0.156018   0.028057
 Electronic spatial extent (au):  <R**2>=          13772.2324
 Charge=              0.0000 electrons
 Dipole moment (field-independent basis, Debye):
    X=             -0.0547    Y=             -6.0139    Z=             -0.0051  Tot=              6.0142
 Quadrupole moment (field-independent basis, Debye-Ang):
   XX=           -177.0973   YY=           -236.5899   ZZ=           -227.4390
   XY=             -0.0437   XZ=             -5.7379   YZ=              0.0429
 Traceless Quadrupole moment (field-independent basis, Debye-Ang):
   XX=             36.6114   YY=            -22.8812   ZZ=            -13.7302
   XY=             -0.0437   XZ=             -5.7379   YZ=              0.0429
 Octapole moment (field-independent basis, Debye-Ang**2):
  XXX=              0.0181  YYY=            -85.8876  ZZZ=              0.0588  XYY=              0.0436
  XXY=            -26.9923  XXZ=              0.4324  XZZ=             -0.3356  YZZ=            -44.0800
  YYZ=              0.1378  XYZ=              2.3903
 Hexadecapole moment (field-independent basis, Debye-Ang**3):
 XXXX=         -10692.8210 YYYY=          -4899.4677 ZZZZ=          -3073.3521 XXXY=              0.3341
 XXXZ=            -33.1680 YYYX=             -1.1572 YYYZ=              0.5376 ZZZX=             -6.7266
 ZZZY=              0.3632 XXYY=          -2554.3467 XXZZ=          -2302.8962 YYZZ=          -1286.3640
 XXYZ=             -0.1107 YYXZ=            -61.7667 ZZXY=              0.5368
 N-N= 4.488462066567D+03 E-N=-1.363182702384D+04  KE= 1.921332530882D+03
                          Isotropic Fermi Contact Couplings
        Atom                 a.u.       MegaHertz       Gauss      10(-4) cm-1
     1  O(17)              0.06350     -19.24746      -6.86797      -6.42026
     2  P(31)             -0.00578      -5.23181      -1.86684      -1.74515
     3  O(17)              0.02863      -8.67778      -3.09645      -2.89459
     4  N(14)              0.07487      12.09615       4.31621       4.03484
     5  C(13)             -0.01203      -6.76401      -2.41357      -2.25623
     6  H(1)               0.00020       0.45247       0.16145       0.15093
     7  H(1)               0.00525      11.73830       4.18852       3.91547
     8  O(17)              0.06296     -19.08439      -6.80979      -6.36587
     9  P(31)             -0.00545      -4.93948      -1.76253      -1.64763
    10  C(13)              0.02919      16.40596       5.85405       5.47244
    11  C(13)             -0.03084     -17.33660      -6.18613      -5.78287
    12  H(1)               0.00042       0.94962       0.33885       0.31676
    13  C(13)              0.08377      47.08877      16.80244      15.70712
    14  H(1)              -0.00731     -16.34561      -5.83252      -5.45231
    15  C(13)             -0.03088     -17.35665      -6.19328      -5.78955
    16  H(1)               0.00043       0.95586       0.34108       0.31884
    17  C(13)              0.02926      16.44661       5.86856       5.48600
    18  C(13)             -0.01203      -6.76408      -2.41359      -2.25625
    19  H(1)               0.00020       0.44121       0.15744       0.14717
    20  H(1)               0.00526      11.75051       4.19287       3.91955
    21  C(13)             -0.00112      -0.63016      -0.22485      -0.21020
    22  C(13)             -0.00008      -0.04236      -0.01512      -0.01413
    23  C(13)              0.00164       0.92384       0.32965       0.30816
    24  H(1)               0.00006       0.13800       0.04924       0.04603
    25  H(1)               0.00005       0.10368       0.03700       0.03458
    26  H(1)              -0.00002      -0.05210      -0.01859      -0.01738
    27  C(13)              0.00044       0.24880       0.08878       0.08299
    28  H(1)              -0.00000      -0.00513      -0.00183      -0.00171
    29  H(1)              -0.00000      -0.00961      -0.00343      -0.00321
    30  H(1)              -0.00000      -0.00551      -0.00197      -0.00184
    31  Ru(99)            -0.00001       0.00055       0.00020       0.00018
    32  C(13)             -0.00014      -0.07981      -0.02848      -0.02662
    33  H(1)              -0.00003      -0.07590      -0.02708      -0.02532
    34  H(1)               0.00003       0.06668       0.02379       0.02224
    35  H(1)              -0.00001      -0.02124      -0.00758      -0.00709
    36  C(13)              0.00091       0.50974       0.18189       0.17003
    37  H(1)               0.00006       0.13112       0.04679       0.04374
    38  H(1)              -0.00001      -0.02910      -0.01038      -0.00971
    39  H(1)               0.00002       0.05523       0.01971       0.01842
    40  C(13)              0.00156       0.87529       0.31233       0.29197
    41  H(1)               0.00003       0.06726       0.02400       0.02244
    42  H(1)               0.00005       0.10207       0.03642       0.03405
    43  H(1)              -0.00006      -0.13968      -0.04984      -0.04659
    44  C(13)              0.00004       0.02475       0.00883       0.00826
    45  H(1)              -0.00009      -0.19816      -0.07071      -0.06610
    46  H(1)              -0.00001      -0.01434      -0.00512      -0.00478
    47  H(1)               0.00001       0.02653       0.00947       0.00885
    48  C(13)             -0.00112      -0.62715      -0.22378      -0.20919
    49  C(13)             -0.00002      -0.01272      -0.00454      -0.00424
    50  C(13)              0.00044       0.24969       0.08909       0.08329
    51  H(1)              -0.00000      -0.00489      -0.00174      -0.00163
    52  H(1)              -0.00000      -0.00966      -0.00345      -0.00322
    53  H(1)              -0.00000      -0.00533      -0.00190      -0.00178
    54  C(13)             -0.00013      -0.07526      -0.02686      -0.02511
    55  H(1)              -0.00003      -0.07466      -0.02664      -0.02490
    56  H(1)               0.00003       0.06518       0.02326       0.02174
    57  H(1)              -0.00001      -0.02146      -0.00766      -0.00716
    58  C(13)              0.00162       0.90941       0.32450       0.30335
    59  H(1)               0.00006       0.13933       0.04972       0.04648
    60  H(1)               0.00005       0.10539       0.03761       0.03516
    61  H(1)              -0.00002      -0.04960      -0.01770      -0.01655
    62  C(13)              0.00095       0.53412       0.19059       0.17816
    63  H(1)               0.00006       0.13661       0.04875       0.04557
    64  H(1)              -0.00001      -0.03006      -0.01073      -0.01003
    65  H(1)               0.00003       0.05629       0.02008       0.01877
    66  C(13)              0.00158       0.88948       0.31739       0.29670
    67  H(1)               0.00003       0.07166       0.02557       0.02390
    68  H(1)               0.00005       0.10086       0.03599       0.03364
    69  H(1)              -0.00007      -0.14567      -0.05198      -0.04859
    70  C(13)              0.00005       0.02778       0.00991       0.00927
    71  H(1)              -0.00009      -0.19478      -0.06950      -0.06497
    72  H(1)              -0.00001      -0.01400      -0.00500      -0.00467
    73  H(1)               0.00001       0.02617       0.00934       0.00873
    74  C(13)             -0.01967     -11.05378      -3.94426      -3.68714
    75  H(1)               0.00701      15.66859       5.59094       5.22648
    76  H(1)               0.00703      15.71534       5.60762       5.24207
 --------------------------------------------------------
       Center         ----  Spin Dipole Couplings  ----
                      3XX-RR        3YY-RR        3ZZ-RR
 --------------------------------------------------------
     1   Atom       -0.088262      0.166389     -0.078127
     2   Atom       -0.027484      0.035812     -0.008328
     3   Atom       -0.192555     -0.170294      0.362848
     4   Atom       -0.193391     -0.328756      0.522147
     5   Atom        0.006258     -0.001636     -0.004622
     6   Atom        0.006750     -0.002948     -0.003801
     7   Atom        0.001723     -0.001627     -0.000096
     8   Atom       -0.091816      0.167928     -0.076111
     9   Atom       -0.027257      0.035719     -0.008462
    10   Atom       -0.067084     -0.116825      0.183909
    11   Atom        0.009384      0.028957     -0.038340
    12   Atom        0.001236      0.003920     -0.005155
    13   Atom       -0.153420     -0.251718      0.405138
    14   Atom       -0.032000      0.036572     -0.004572
    15   Atom        0.009413      0.029117     -0.038530
    16   Atom        0.001242      0.003914     -0.005155
    17   Atom       -0.067198     -0.116999      0.184197
    18   Atom        0.006247     -0.001633     -0.004614
    19   Atom        0.006761     -0.002962     -0.003798
    20   Atom        0.001753     -0.001636     -0.000117
    21   Atom        0.003521     -0.001226     -0.002295
    22   Atom        0.003986     -0.002230     -0.001755
    23   Atom        0.002022     -0.001390     -0.000631
    24   Atom        0.000689     -0.000566     -0.000123
    25   Atom        0.000590     -0.001839      0.001249
    26   Atom        0.000537     -0.000041     -0.000496
    27   Atom        0.002492     -0.000576     -0.001915
    28   Atom        0.001340     -0.000233     -0.001107
    29   Atom        0.002549      0.000029     -0.002578
    30   Atom        0.002081     -0.000637     -0.001444
    31   Atom       -0.305022      0.168298      0.136724
    32   Atom        0.001901     -0.001053     -0.000848
    33   Atom        0.001342     -0.000719     -0.000623
    34   Atom        0.002264     -0.000996     -0.001268
    35   Atom        0.002233     -0.001409     -0.000824
    36   Atom        0.001674     -0.001127     -0.000547
    37   Atom        0.000877     -0.001179      0.000302
    38   Atom        0.001914     -0.000854     -0.001059
    39   Atom        0.001566     -0.002417      0.000851
    40   Atom        0.002101     -0.000698     -0.001403
    41   Atom        0.000534     -0.001524      0.000990
    42   Atom       -0.000208     -0.002406      0.002613
    43   Atom        0.002571     -0.002111     -0.000460
    44   Atom        0.002493     -0.001192     -0.001301
    45   Atom        0.001721     -0.000943     -0.000777
    46   Atom        0.003003     -0.001285     -0.001718
    47   Atom        0.002169     -0.000962     -0.001207
    48   Atom        0.003509     -0.001217     -0.002293
    49   Atom        0.003954     -0.002279     -0.001675
    50   Atom        0.002462     -0.000560     -0.001902
    51   Atom        0.001327     -0.000223     -0.001104
    52   Atom        0.002499      0.000046     -0.002545
    53   Atom        0.002060     -0.000627     -0.001433
    54   Atom        0.001904     -0.001052     -0.000851
    55   Atom        0.001340     -0.000715     -0.000625
    56   Atom        0.002262     -0.000994     -0.001267
    57   Atom        0.002237     -0.001410     -0.000827
    58   Atom        0.002037     -0.001356     -0.000681
    59   Atom        0.000692     -0.000548     -0.000143
    60   Atom        0.000624     -0.001831      0.001207
    61   Atom        0.000575      0.000017     -0.000592
    62   Atom        0.001646     -0.001115     -0.000531
    63   Atom        0.000866     -0.001170      0.000304
    64   Atom        0.001885     -0.000841     -0.001044
    65   Atom        0.001536     -0.002372      0.000836
    66   Atom        0.002076     -0.000692     -0.001384
    67   Atom        0.000526     -0.001526      0.001000
    68   Atom       -0.000192     -0.002438      0.002630
    69   Atom        0.002555     -0.002132     -0.000423
    70   Atom        0.002502     -0.001199     -0.001303
    71   Atom        0.001718     -0.000944     -0.000774
    72   Atom        0.003007     -0.001288     -0.001719
    73   Atom        0.002162     -0.000959     -0.001203
    74   Atom       -0.075925      0.007308      0.068617
    75   Atom       -0.018488      0.004607      0.013880
    76   Atom       -0.018613      0.004843      0.013770
 --------------------------------------------------------
                        XY            XZ            YZ
 --------------------------------------------------------
     1   Atom        0.024287     -0.013654     -0.149625
     2   Atom        0.006808      0.001724      0.014032
     3   Atom        0.000171      0.064863      0.000039
     4   Atom       -0.000138      0.365955     -0.000394
     5   Atom       -0.001350     -0.003965     -0.001272
     6   Atom       -0.000392     -0.003344      0.000093
     7   Atom       -0.000546     -0.007431     -0.000441
     8   Atom       -0.018295     -0.010651      0.148882
     9   Atom       -0.006802      0.001721     -0.014385
    10   Atom       -0.008441      0.126273      0.000094
    11   Atom        0.005617     -0.021406     -0.002327
    12   Atom       -0.002270     -0.003557      0.000943
    13   Atom        0.000122      0.281053      0.000199
    14   Atom        0.000132      0.013705     -0.000065
    15   Atom       -0.005572     -0.021473      0.002332
    16   Atom        0.002267     -0.003562     -0.000940
    17   Atom        0.008534      0.126286      0.000093
    18   Atom        0.001333     -0.003954      0.001257
    19   Atom        0.000363     -0.003343     -0.000081
    20   Atom        0.000547     -0.007434      0.000479
    21   Atom        0.000999     -0.000972      0.000297
    22   Atom        0.000941      0.002969      0.001245
    23   Atom        0.002907     -0.003510     -0.001744
    24   Atom        0.001377     -0.001980     -0.001077
    25   Atom        0.001406     -0.004665     -0.001436
    26   Atom        0.004072     -0.004669     -0.003172
    27   Atom        0.002071     -0.000411     -0.000189
    28   Atom        0.001411     -0.000623     -0.000337
    29   Atom        0.003028      0.000009      0.000022
    30   Atom        0.001310      0.000182      0.000071
    31   Atom        0.004216      0.012127     -0.000075
    32   Atom        0.000702     -0.001283     -0.000074
    33   Atom        0.000598     -0.001074     -0.000252
    34   Atom        0.000363     -0.000692     -0.000078
    35   Atom        0.000294     -0.002057     -0.000173
    36   Atom        0.000649      0.002826      0.001745
    37   Atom        0.000517      0.002262      0.000504
    38   Atom        0.001556      0.001974      0.000749
    39   Atom        0.001980      0.005222      0.001849
    40   Atom       -0.003163      0.003761      0.002303
    41   Atom       -0.000750      0.003232     -0.000415
    42   Atom       -0.002799      0.007226     -0.000952
    43   Atom       -0.001375      0.006046      0.000310
    44   Atom        0.000347      0.001097      0.000108
    45   Atom       -0.000059      0.001283      0.000021
    46   Atom       -0.000279      0.000656     -0.000040
    47   Atom        0.000405      0.000622      0.000116
    48   Atom       -0.001026     -0.000957     -0.000291
    49   Atom       -0.000951      0.003028     -0.001235
    50   Atom       -0.002067     -0.000392      0.000182
    51   Atom       -0.001409     -0.000607      0.000332
    52   Atom       -0.003005      0.000032     -0.000037
    53   Atom       -0.001309      0.000187     -0.000074
    54   Atom       -0.000711     -0.001280      0.000076
    55   Atom       -0.000607     -0.001069      0.000255
    56   Atom       -0.000372     -0.000689      0.000080
    57   Atom       -0.000308     -0.002057      0.000182
    58   Atom       -0.002938     -0.003478      0.001753
    59   Atom       -0.001390     -0.001966      0.001083
    60   Atom       -0.001449     -0.004671      0.001474
    61   Atom       -0.004102     -0.004611      0.003161
    62   Atom       -0.000660      0.002810     -0.001751
    63   Atom       -0.000513      0.002245     -0.000504
    64   Atom       -0.001542      0.001955     -0.000749
    65   Atom       -0.001944      0.005143     -0.001842
    66   Atom        0.003177      0.003752     -0.002351
    67   Atom        0.000749      0.003229      0.000413
    68   Atom        0.002787      0.007212      0.000931
    69   Atom        0.001373      0.006074     -0.000317
    70   Atom       -0.000346      0.001098     -0.000111
    71   Atom        0.000058      0.001282     -0.000021
    72   Atom        0.000275      0.000658      0.000038
    73   Atom       -0.000409      0.000623     -0.000117
    74   Atom        0.000456      0.033966     -0.000311
    75   Atom        0.001622     -0.002111     -0.019543
    76   Atom       -0.001352     -0.001865      0.019742
 --------------------------------------------------------


 ---------------------------------------------------------------------------------
              Anisotropic Spin Dipole Couplings in Principal Axis System
 ---------------------------------------------------------------------------------

       Atom             a.u.   MegaHertz   Gauss  10(-4) cm-1        Axes

              Baa    -0.1492    10.793     3.851     3.600  0.0327  0.4262  0.9041
     1 O(17)  Bbb    -0.0906     6.552     2.338     2.186  0.9959 -0.0903  0.0065
              Bcc     0.2397   -17.345    -6.189    -5.786  0.0844  0.9001 -0.4274
 
              Baa    -0.0282    -6.099    -2.176    -2.034  0.9946 -0.1028 -0.0137
     2 P(31)  Bbb    -0.0124    -2.682    -0.957    -0.895 -0.0154 -0.2774  0.9606
              Bcc     0.0406     8.781     3.133     2.929  0.1025  0.9553  0.2775
 
              Baa    -0.2000    14.474     5.165     4.828  0.9934 -0.0056 -0.1145
     3 O(17)  Bbb    -0.1703    12.322     4.397     4.110  0.0055  1.0000 -0.0007
              Bcc     0.3703   -26.796    -9.562    -8.938  0.1145  0.0001  0.9934
 
              Baa    -0.3474   -13.399    -4.781    -4.469  0.9217 -0.0014 -0.3879
     4 N(14)  Bbb    -0.3288   -12.679    -4.524    -4.229  0.0014  1.0000 -0.0002
              Bcc     0.6762    26.078     9.305     8.699  0.3879 -0.0004  0.9217
 
              Baa    -0.0065    -0.868    -0.310    -0.290  0.3126  0.3224  0.8935
     5 C(13)  Bbb    -0.0012    -0.157    -0.056    -0.052 -0.0087  0.9416 -0.3367
              Bcc     0.0076     1.025     0.366     0.342  0.9498 -0.0975 -0.2971
 
              Baa    -0.0048    -2.546    -0.909    -0.849  0.2791  0.0113  0.9602
     6 H(1)   Bbb    -0.0030    -1.581    -0.564    -0.527  0.0330  0.9992 -0.0213
              Bcc     0.0077     4.127     1.473     1.377  0.9597 -0.0377 -0.2785
 
              Baa    -0.0068    -3.610    -1.288    -1.204  0.6576  0.1336  0.7414
     7 H(1)   Bbb    -0.0015    -0.819    -0.292    -0.273 -0.0797  0.9910 -0.1078
              Bcc     0.0083     4.429     1.580     1.477  0.7491 -0.0118 -0.6623
 
              Baa    -0.1466    10.611     3.786     3.540  0.0335 -0.4260  0.9041
     8 O(17)  Bbb    -0.0931     6.737     2.404     2.247  0.9974  0.0717 -0.0032
              Bcc     0.2397   -17.348    -6.190    -5.787 -0.0635  0.9019  0.4273
 
              Baa    -0.0280    -6.050    -2.159    -2.018  0.9946  0.1036 -0.0113
     9 P(31)  Bbb    -0.0127    -2.752    -0.982    -0.918 -0.0185  0.2822  0.9592
              Bcc     0.0407     8.802     3.141     2.936 -0.1026  0.9537 -0.2826
 
              Baa    -0.1262   -16.933    -6.042    -5.648  0.7094  0.6427 -0.2891
    10 C(13)  Bbb    -0.1103   -14.799    -5.281    -4.936 -0.5908  0.7660  0.2533
              Bcc     0.2365    31.732    11.323    10.585  0.3843 -0.0089  0.9232
 
              Baa    -0.0465    -6.245    -2.228    -2.083  0.3573  0.0022  0.9340
    11 C(13)  Bbb     0.0149     2.005     0.715     0.669  0.8572 -0.3979 -0.3270
              Bcc     0.0316     4.239     1.513     1.414  0.3709  0.9174 -0.1441
 
              Baa    -0.0067    -3.597    -1.284    -1.200  0.4087  0.0063  0.9126
    12 H(1)   Bbb     0.0009     0.455     0.162     0.152  0.7106  0.6253 -0.3226
              Bcc     0.0059     3.142     1.121     1.048 -0.5727  0.7804  0.2511
 
              Baa    -0.2704   -36.279   -12.945   -12.101  0.9233 -0.0020 -0.3841
    13 C(13)  Bbb    -0.2517   -33.778   -12.053   -11.267  0.0017  1.0000 -0.0010
              Bcc     0.5221    70.058    24.998    23.369  0.3841  0.0003  0.9233
 
              Baa    -0.0377   -20.101    -7.173    -6.705  0.9239 -0.0020 -0.3825
    14 H(1)   Bbb     0.0011     0.588     0.210     0.196  0.3825  0.0003  0.9239
              Bcc     0.0366    19.513     6.963     6.509  0.0017  1.0000 -0.0010
 
              Baa    -0.0467    -6.272    -2.238    -2.092  0.3569 -0.0025  0.9341
    15 C(13)  Bbb     0.0150     2.018     0.720     0.673  0.8589  0.3940 -0.3271
              Bcc     0.0317     4.255     1.518     1.419 -0.3673  0.9191  0.1428
 
              Baa    -0.0067    -3.599    -1.284    -1.200  0.4089 -0.0065  0.9126
    16 H(1)   Bbb     0.0009     0.459     0.164     0.153  0.7098 -0.6262 -0.3225
              Bcc     0.0059     3.140     1.120     1.047  0.5736  0.7796 -0.2514
 
              Baa    -0.1263   -16.950    -6.048    -5.654  0.7075 -0.6455 -0.2876
    17 C(13)  Bbb    -0.1104   -14.815    -5.286    -4.942  0.5933  0.7637 -0.2546
              Bcc     0.2367    31.764    11.334    10.595  0.3839  0.0095  0.9233
 
              Baa    -0.0064    -0.865    -0.309    -0.288  0.3123 -0.3201  0.8944
    18 C(13)  Bbb    -0.0012    -0.158    -0.056    -0.053  0.0089  0.9425  0.3342
              Bcc     0.0076     1.022     0.365     0.341  0.9499  0.0965 -0.2972
 
              Baa    -0.0048    -2.544    -0.908    -0.849  0.2789 -0.0128  0.9602
    19 H(1)   Bbb    -0.0030    -1.587    -0.566    -0.529 -0.0297  0.9993  0.0220
              Bcc     0.0077     4.131     1.474     1.378  0.9599  0.0347 -0.2783
 
              Baa    -0.0068    -3.615    -1.290    -1.206  0.6557 -0.1390  0.7421
    20 H(1)   Bbb    -0.0015    -0.820    -0.292    -0.273  0.0849  0.9902  0.1105
              Bcc     0.0083     4.434     1.582     1.479  0.7502  0.0095 -0.6611
 
              Baa    -0.0026    -0.351    -0.125    -0.117  0.2008 -0.3400  0.9187
    21 C(13)  Bbb    -0.0012    -0.166    -0.059    -0.055 -0.1187  0.9225  0.3673
              Bcc     0.0039     0.517     0.185     0.173  0.9724  0.1828 -0.1448
 
              Baa    -0.0036    -0.477    -0.170    -0.159 -0.2388 -0.5690  0.7869
    22 C(13)  Bbb    -0.0019    -0.259    -0.092    -0.086 -0.3642  0.8037  0.4706
              Bcc     0.0055     0.736     0.263     0.245  0.9002  0.1742  0.3992
 
              Baa    -0.0032    -0.430    -0.154    -0.144  0.6546 -0.5464  0.5224
    23 C(13)  Bbb    -0.0028    -0.375    -0.134    -0.125  0.0603  0.7266  0.6844
              Bcc     0.0060     0.805     0.287     0.268  0.7536  0.4165 -0.5086
 
              Baa    -0.0017    -0.929    -0.332    -0.310  0.6575 -0.0838  0.7488
    24 H(1)   Bbb    -0.0014    -0.741    -0.264    -0.247 -0.2724  0.9001  0.3399
              Bcc     0.0031     1.670     0.596     0.557  0.7025  0.4275 -0.5690
 
              Baa    -0.0038    -2.005    -0.716    -0.669  0.7360 -0.0331  0.6761
    25 H(1)   Bbb    -0.0023    -1.252    -0.447    -0.417 -0.1423  0.9689  0.2024
              Bcc     0.0061     3.257     1.162     1.086 -0.6618 -0.2452  0.7084
 
              Baa    -0.0047    -2.531    -0.903    -0.844  0.7266 -0.1824  0.6625
    26 H(1)   Bbb    -0.0033    -1.745    -0.623    -0.582 -0.2566  0.8223  0.5079
              Bcc     0.0080     4.276     1.526     1.426  0.6374  0.5390 -0.5506
 
              Baa    -0.0020    -0.262    -0.094    -0.087  0.0948 -0.0058  0.9955
    27 C(13)  Bbb    -0.0016    -0.217    -0.078    -0.072 -0.4456  0.8940  0.0476
              Bcc     0.0036     0.479     0.171     0.160  0.8902  0.4481 -0.0821
 
              Baa    -0.0013    -0.670    -0.239    -0.224  0.2352 -0.0038  0.9720
    28 H(1)   Bbb    -0.0011    -0.565    -0.202    -0.188 -0.4801  0.8691  0.1195
              Bcc     0.0023     1.235     0.441     0.412  0.8451  0.4947 -0.2026
 
              Baa    -0.0026    -1.376    -0.491    -0.459  0.0102 -0.0200  0.9997
    29 H(1)   Bbb    -0.0020    -1.062    -0.379    -0.354 -0.5548  0.8317  0.0223
              Bcc     0.0046     2.437     0.870     0.813  0.8319  0.5549  0.0027
 
              Baa    -0.0015    -0.776    -0.277    -0.259 -0.0474 -0.0104  0.9988
    30 H(1)   Bbb    -0.0012    -0.622    -0.222    -0.207 -0.3739  0.9274 -0.0081
              Bcc     0.0026     1.397     0.499     0.466  0.9263  0.3738  0.0479
 
              Baa    -0.3054     7.483     2.670     2.496  0.9996 -0.0089 -0.0274
    31 Ru(99) Bbb     0.1371    -3.358    -1.198    -1.120  0.0274 -0.0013  0.9996
              Bcc     0.1683    -4.125    -1.472    -1.376  0.0089  1.0000  0.0011
 
              Baa    -0.0015    -0.198    -0.070    -0.066  0.3956 -0.5299  0.7502
    32 C(13)  Bbb    -0.0011    -0.143    -0.051    -0.048  0.0463  0.8273  0.5599
              Bcc     0.0025     0.340     0.121     0.114  0.9173  0.1868 -0.3518
 
              Baa    -0.0011    -0.585    -0.209    -0.195  0.4124 -0.0474  0.9098
    33 H(1)   Bbb    -0.0009    -0.467    -0.167    -0.156 -0.1947  0.9710  0.1389
              Bcc     0.0020     1.052     0.375     0.351  0.8900  0.2344 -0.3912
 
              Baa    -0.0014    -0.747    -0.266    -0.249  0.1831  0.0258  0.9828
    34 H(1)   Bbb    -0.0010    -0.553    -0.197    -0.184 -0.1104  0.9939 -0.0055
              Bcc     0.0024     1.299     0.464     0.433  0.9769  0.1075 -0.1848
 
              Baa    -0.0019    -0.992    -0.354    -0.331  0.4455  0.0533  0.8937
    35 H(1)   Bbb    -0.0014    -0.764    -0.273    -0.255 -0.0885  0.9960 -0.0153
              Bcc     0.0033     1.757     0.627     0.586  0.8909  0.0723 -0.4484
 
              Baa    -0.0032    -0.424    -0.151    -0.141 -0.3725 -0.5333  0.7595
    36 C(13)  Bbb    -0.0009    -0.121    -0.043    -0.040 -0.5282  0.7947  0.2990
              Bcc     0.0041     0.545     0.194     0.182  0.7630  0.2898  0.5777
 
              Baa    -0.0017    -0.904    -0.322    -0.301 -0.6475 -0.0909  0.7566
    37 H(1)   Bbb    -0.0013    -0.694    -0.248    -0.231 -0.1881  0.9812 -0.0432
              Bcc     0.0030     1.597     0.570     0.533  0.7385  0.1703  0.6524
 
              Baa    -0.0020    -1.091    -0.389    -0.364 -0.4586  0.0404  0.8877
    38 H(1)   Bbb    -0.0015    -0.815    -0.291    -0.272 -0.3059  0.9307 -0.2004
              Bcc     0.0036     1.906     0.680     0.636  0.8344  0.3634  0.4145
 
              Baa    -0.0040    -2.148    -0.767    -0.717 -0.6826  0.0001  0.7308
    39 H(1)   Bbb    -0.0032    -1.696    -0.605    -0.566 -0.1980  0.9626 -0.1850
              Bcc     0.0072     3.845     1.372     1.282  0.7035  0.2710  0.6570
 
              Baa    -0.0063    -0.841    -0.300    -0.280 -0.5064 -0.5591  0.6565
    40 C(13)  Bbb     0.0013     0.172     0.061     0.057 -0.0084  0.7644  0.6446
              Bcc     0.0050     0.669     0.239     0.223  0.8622 -0.3209  0.3918
 
              Baa    -0.0026    -1.363    -0.486    -0.455  0.7262  0.2748 -0.6301
    41 H(1)   Bbb    -0.0016    -0.836    -0.298    -0.279 -0.1077  0.9508  0.2906
              Bcc     0.0041     2.198     0.784     0.733  0.6790 -0.1432  0.7201
 
              Baa    -0.0068    -3.613    -1.289    -1.205  0.7551  0.3654 -0.5443
    42 H(1)   Bbb    -0.0023    -1.254    -0.447    -0.418 -0.1527  0.9055  0.3960
              Bcc     0.0091     4.867     1.737     1.623  0.6376 -0.2159  0.7395
 
              Baa    -0.0055    -2.951    -1.053    -0.984 -0.6019 -0.3088  0.7364
    43 H(1)   Bbb    -0.0018    -0.983    -0.351    -0.328 -0.1173  0.9464  0.3009
              Bcc     0.0074     3.934     1.404     1.312  0.7899 -0.0947  0.6059
 
              Baa    -0.0016    -0.214    -0.076    -0.071 -0.2558 -0.0392  0.9659
    44 C(13)  Bbb    -0.0012    -0.164    -0.059    -0.055 -0.0973  0.9951  0.0146
              Bcc     0.0028     0.378     0.135     0.126  0.9618  0.0903  0.2583
 
              Baa    -0.0013    -0.706    -0.252    -0.236 -0.3878 -0.1099  0.9152
    45 H(1)   Bbb    -0.0009    -0.501    -0.179    -0.167 -0.0296  0.9938  0.1069
              Bcc     0.0023     1.207     0.431     0.403  0.9213 -0.0144  0.3887
 
              Baa    -0.0018    -0.964    -0.344    -0.322 -0.1350  0.0030  0.9908
    46 H(1)   Bbb    -0.0013    -0.695    -0.248    -0.232  0.0638  0.9979  0.0057
              Bcc     0.0031     1.660     0.592     0.554  0.9888 -0.0640  0.1350
 
              Baa    -0.0013    -0.707    -0.252    -0.236 -0.1585 -0.1355  0.9780
    47 H(1)   Bbb    -0.0010    -0.538    -0.192    -0.180 -0.1473  0.9827  0.1123
              Bcc     0.0023     1.245     0.444     0.415  0.9763  0.1262  0.1758
 
              Baa    -0.0026    -0.350    -0.125    -0.117  0.2007  0.3397  0.9189
    48 C(13)  Bbb    -0.0012    -0.166    -0.059    -0.055  0.1250  0.9214 -0.3679
              Bcc     0.0038     0.517     0.184     0.172  0.9717 -0.1887 -0.1425
 
              Baa    -0.0035    -0.474    -0.169    -0.158 -0.2403  0.5817  0.7771
    49 C(13)  Bbb    -0.0020    -0.266    -0.095    -0.089  0.3722  0.7946 -0.4797
              Bcc     0.0055     0.740     0.264     0.247  0.8965 -0.1739  0.4074
 
              Baa    -0.0019    -0.260    -0.093    -0.087  0.0915  0.0060  0.9958
    50 C(13)  Bbb    -0.0016    -0.216    -0.077    -0.072  0.4488  0.8924 -0.0466
              Bcc     0.0035     0.476     0.170     0.159  0.8890 -0.4511 -0.0790
 
              Baa    -0.0012    -0.666    -0.238    -0.222  0.2305  0.0016  0.9731
    51 H(1)   Bbb    -0.0011    -0.562    -0.201    -0.187  0.4840  0.8674 -0.1161
              Bcc     0.0023     1.228     0.438     0.410  0.8442 -0.4977 -0.1991
 
              Baa    -0.0025    -1.358    -0.485    -0.453  0.0068  0.0222  0.9997
    52 H(1)   Bbb    -0.0020    -1.053    -0.376    -0.351  0.5577  0.8297 -0.0222
              Bcc     0.0045     2.411     0.860     0.804  0.8300 -0.5577  0.0067
 
              Baa    -0.0014    -0.770    -0.275    -0.257 -0.0491  0.0117  0.9987
    53 H(1)   Bbb    -0.0012    -0.618    -0.221    -0.206  0.3763  0.9265  0.0076
              Bcc     0.0026     1.388     0.495     0.463  0.9252 -0.3762  0.0499
 
              Baa    -0.0015    -0.198    -0.071    -0.066  0.3958  0.5318  0.7487
    54 C(13)  Bbb    -0.0011    -0.143    -0.051    -0.048 -0.0450  0.8255 -0.5626
              Bcc     0.0025     0.341     0.122     0.114  0.9173 -0.1890 -0.3506
 
              Baa    -0.0011    -0.584    -0.209    -0.195  0.4107  0.0435  0.9107
    55 H(1)   Bbb    -0.0009    -0.467    -0.167    -0.156  0.1998  0.9703 -0.1364
              Bcc     0.0020     1.052     0.375     0.351  0.8896 -0.2380 -0.3898
 
              Baa    -0.0014    -0.745    -0.266    -0.249  0.1821 -0.0280  0.9829
    56 H(1)   Bbb    -0.0010    -0.553    -0.197    -0.184  0.1135  0.9935  0.0073
              Bcc     0.0024     1.298     0.463     0.433  0.9767 -0.1102 -0.1841
 
              Baa    -0.0019    -0.993    -0.354    -0.331  0.4445 -0.0566  0.8940
    57 H(1)   Bbb    -0.0014    -0.766    -0.273    -0.255  0.0930  0.9955  0.0168
              Bcc     0.0033     1.759     0.628     0.587  0.8909 -0.0756 -0.4478
 
              Baa    -0.0032    -0.429    -0.153    -0.143  0.6543  0.5444  0.5249
    58 C(13)  Bbb    -0.0028    -0.376    -0.134    -0.125 -0.0529  0.7253 -0.6864
              Bcc     0.0060     0.805     0.287     0.268  0.7544 -0.4213 -0.5034
 
              Baa    -0.0017    -0.928    -0.331    -0.309  0.6539  0.0789  0.7524
    59 H(1)   Bbb    -0.0014    -0.742    -0.265    -0.247  0.2806  0.8983 -0.3381
              Bcc     0.0031     1.670     0.596     0.557  0.7026 -0.4322 -0.5653
 
              Baa    -0.0038    -2.009    -0.717    -0.670  0.7332  0.0319  0.6792
    60 H(1)   Bbb    -0.0024    -1.262    -0.450    -0.421  0.1482  0.9674 -0.2053
              Bcc     0.0061     3.271     1.167     1.091 -0.6636  0.2512  0.7046
 
              Baa    -0.0047    -2.517    -0.898    -0.840  0.7211  0.1778  0.6696
    61 H(1)   Bbb    -0.0033    -1.747    -0.623    -0.583  0.2678  0.8199 -0.5060
              Bcc     0.0080     4.264     1.521     1.422  0.6390 -0.5442 -0.5436
 
              Baa    -0.0031    -0.422    -0.150    -0.141 -0.3716  0.5348  0.7589
    62 C(13)  Bbb    -0.0009    -0.121    -0.043    -0.040  0.5329  0.7922 -0.2973
              Bcc     0.0040     0.543     0.194     0.181  0.7602 -0.2939  0.5794
 
              Baa    -0.0017    -0.897    -0.320    -0.299 -0.6472  0.0957  0.7563
    63 H(1)   Bbb    -0.0013    -0.689    -0.246    -0.230  0.1917  0.9806  0.0400
              Bcc     0.0030     1.586     0.566     0.529  0.7378 -0.1709  0.6530
 
              Baa    -0.0020    -1.079    -0.385    -0.360 -0.4580 -0.0347  0.8883
    64 H(1)   Bbb    -0.0015    -0.807    -0.288    -0.269  0.3097  0.9304  0.1960
              Bcc     0.0035     1.886     0.673     0.629  0.8332 -0.3648  0.4155
 
              Baa    -0.0040    -2.118    -0.756    -0.707 -0.6786  0.0206  0.7342
    65 H(1)   Bbb    -0.0031    -1.669    -0.596    -0.557  0.2133  0.9621  0.1702
              Bcc     0.0071     3.787     1.351     1.263  0.7028 -0.2721  0.6573
 
              Baa    -0.0063    -0.845    -0.302    -0.282 -0.5062  0.5613  0.6548
    66 C(13)  Bbb     0.0013     0.180     0.064     0.060  0.0082  0.7623 -0.6471
              Bcc     0.0050     0.666     0.238     0.222  0.8624  0.3222  0.3905
 
              Baa    -0.0026    -1.362    -0.486    -0.454  0.7267 -0.2772 -0.6285
    67 H(1)   Bbb    -0.0016    -0.835    -0.298    -0.279  0.1102  0.9501 -0.2917
              Bcc     0.0041     2.197     0.784     0.733  0.6780  0.1427  0.7211
 
              Baa    -0.0068    -3.603    -1.285    -1.202  0.7540 -0.3699 -0.5428
    68 H(1)   Bbb    -0.0024    -1.259    -0.449    -0.420  0.1579  0.9042 -0.3969
              Bcc     0.0091     4.862     1.735     1.622  0.6376  0.2136  0.7401
 
              Baa    -0.0055    -2.960    -1.056    -0.987 -0.6033  0.3108  0.7345
    69 H(1)   Bbb    -0.0019    -0.990    -0.353    -0.330  0.1204  0.9459 -0.3013
              Bcc     0.0074     3.950     1.409     1.318  0.7884  0.0933  0.6081
 
              Baa    -0.0016    -0.214    -0.077    -0.072 -0.2545  0.0476  0.9659
    70 C(13)  Bbb    -0.0012    -0.165    -0.059    -0.055  0.0991  0.9948 -0.0230
              Bcc     0.0028     0.380     0.135     0.127  0.9620 -0.0898  0.2579
 
              Baa    -0.0013    -0.705    -0.251    -0.235 -0.3880  0.1115  0.9149
    71 H(1)   Bbb    -0.0009    -0.501    -0.179    -0.167  0.0305  0.9937 -0.1082
              Bcc     0.0023     1.206     0.430     0.402  0.9211  0.0141  0.3890
 
              Baa    -0.0018    -0.965    -0.344    -0.322 -0.1353 -0.0017  0.9908
    72 H(1)   Bbb    -0.0013    -0.697    -0.249    -0.232 -0.0625  0.9980 -0.0068
              Bcc     0.0031     1.662     0.593     0.554  0.9888  0.0629  0.1351
 
              Baa    -0.0013    -0.704    -0.251    -0.235 -0.1591  0.1355  0.9779
    73 H(1)   Bbb    -0.0010    -0.538    -0.192    -0.179  0.1488  0.9825 -0.1119
              Bcc     0.0023     1.242     0.443     0.414  0.9760 -0.1277  0.1765
 
              Baa    -0.0835   -11.207    -3.999    -3.738  0.9760 -0.0056 -0.2179
    74 C(13)  Bbb     0.0073     0.981     0.350     0.327  0.0062  1.0000  0.0017
              Bcc     0.0762    10.226     3.649     3.411  0.2179 -0.0030  0.9760
 
              Baa    -0.0186    -9.943    -3.548    -3.317  0.9985 -0.0307  0.0464
    75 H(1)   Bbb    -0.0108    -5.784    -2.064    -1.929 -0.0047  0.7847  0.6199
              Bcc     0.0295    15.727     5.612     5.246 -0.0554 -0.6191  0.7833
 
              Baa    -0.0187    -9.990    -3.565    -3.332  0.9988  0.0189  0.0458
    76 H(1)   Bbb    -0.0109    -5.833    -2.081    -1.946  0.0138  0.7816 -0.6236
              Bcc     0.0297    15.824     5.646     5.278 -0.0476  0.6235  0.7804
 

 ---------------------------------------------------------------------------------

 1\1\GINC-NODE010\SP\UB3LYP TD-FC\def2SVP\C24H45N1O3P2Ru1(3)\DO57CIG\05
 -Feb-2024\0\\# td=(triplets,nstates=5,conver=3,root=3) b3lyp scrf=(smd
 ,solvent=water,iterative) def2svp empiricaldispersion=gd3bj int=ultraf
 ine scf=xqc guess=read geom=check density=current\\tBut_Ru_T_Crossing_
 region_Interpol_struc_2_5_T_root_1_MC\\0,3\O,0,0.00247197,-0.44253635,
 -1.99698516\P,0,-2.48949413,-0.1618871,0.09919912\O,0,-0.02509978,-3.6
 2683569,-0.00040338\N,0,0.00033614,1.53338867,-0.00220535\C,0,-2.28188
 172,1.46381892,0.96914066\H,0,-3.20035371,2.06563248,0.92509261\H,0,-2
 .12302016,1.18614964,2.02446516\O,0,-0.00792773,-0.4420899,1.99302957\
 P,0,2.491086,-0.16757652,-0.09687788\C,0,-1.09958971,2.2492328,0.45652
 283\C,0,-1.11422668,3.63109901,0.45534003\H,0,-2.00855092,4.14359707,0
 .81826468\C,0,0.00497024,4.36846421,-0.00376865\H,0,0.00667779,5.45940
 573,-0.00455543\C,0,1.12186472,3.62694891,-0.46176887\H,0,2.01787236,4
 .13617893,-0.82513812\C,0,1.102905,2.24509084,-0.46129874\C,0,2.283093
 65,1.45542358,-0.97221351\H,0,3.20238648,2.05625402,-0.93224055\H,0,2.
 12193708,1.17347291,-2.0260373\C,0,-3.59832715,-1.2012219,1.24711542\C
 ,0,-3.38691355,0.24557416,-1.53053006\C,0,-2.73883527,-1.75271596,2.39
 652413\H,0,-3.39261578,-2.34099423,3.06141128\H,0,-2.27870048,-0.95586
 112,2.99461262\H,0,-1.94695662,-2.42017786,2.02934126\C,0,-4.1573971,-
 2.40160071,0.46833018\H,0,-4.65035327,-3.08522312,1.17894388\H,0,-3.35
 572486,-2.96415951,-0.03508033\H,0,-4.90482022,-2.1103902,-0.28080715\
 Ru,0,-0.00456271,-0.61265518,-0.00212325\C,0,-4.73740547,-0.3738325,1.
 8638503\H,0,-5.33246662,-1.03108873,2.52019254\H,0,-5.41625647,0.04920
 661,1.11536479\H,0,-4.35072325,0.44624863,2.48629625\C,0,-3.28887809,-
 0.96406107,-2.47530944\H,0,-3.7217979,-0.68977883,-3.45189935\H,0,-3.8
 3964547,-1.83594817,-2.10175388\H,0,-2.24240958,-1.25454139,-2.6377633
 \C,0,-2.66404432,1.44191039,-2.17663279\H,0,-3.10038853,1.60716459,-3.
 17583105\H,0,-1.59077758,1.25672841,-2.29753814\H,0,-2.8012688,2.36470
 455,-1.59724199\C,0,-4.85625006,0.63928285,-1.32832548\H,0,-5.26219961
 ,0.97658583,-2.2970429\H,0,-4.96431467,1.47166442,-0.61707859\H,0,-5.4
 772406,-0.19896269,-0.98750944\C,0,3.59904098,-1.20955991,-1.24322624\
 C,0,3.38961899,0.24643143,1.53054283\C,0,4.16075784,-2.40692219,-0.461
 74663\H,0,4.65250903,-3.09268278,-1.17115002\H,0,3.3607789,-2.96833463
 ,0.0456335\H,0,4.90979709,-2.11242096,0.28452599\C,0,4.73644059,-0.383
 93335,-1.86535328\H,0,5.33057311,-1.04324991,-2.52048346\H,0,5.4165493
 4,0.04207576,-1.11964288\H,0,4.34824175,0.43375918,-2.48997987\C,0,2.7
 3658279,-1.7651452,-2.38848048\H,0,3.38828264,-2.35594475,-3.05319451\
 H,0,2.27481166,-0.97030513,-2.98805609\H,0,1.94537061,-2.43092588,-2.0
 1666751\C,0,3.29573928,-0.96082489,2.47877405\H,0,3.72849615,-0.682515
 92,3.45430503\H,0,3.84875596,-1.83222258,2.10743073\H,0,2.25019069,-1.
 25388777,2.64282704\C,0,2.66374265,1.44223772,2.17426841\H,0,3.0997717
 ,1.61096948,3.1730304\H,0,1.59092274,1.25430289,2.29571393\H,0,2.79819
 831,2.36411212,1.59280257\C,0,4.85767254,0.643313,1.32556745\H,0,5.264
 16576,0.98441366,2.29274701\H,0,4.96284434,1.47385022,0.61172439\H,0,5
 .48017135,-0.19447038,0.98629637\C,0,-0.0151884,-2.46371357,-0.0014483
 \H,0,-0.05890506,-1.31313936,2.40936105\H,0,0.03988379,-1.31435573,-2.
 41319874\\Version=ES64L-G16RevB.01\State=3-A\HF=-1998.9267416\S2=2.017
 312\S2-1=0.\S2A=2.00018\RMSD=4.579e-09\Dipole=-0.0212063,-2.3660557,-0
 .002755\Quadrupole=27.2250159,-17.011614,-10.2134019,-0.0256736,-4.242
 6241,0.0292544\PG=C01 [X(C24H45N1O3P2Ru1)]\\@


 ACCORDING TO HEN3RY, LIFE IS MUCH LIKE A SEWER........
 YOU GET OUT OF IT JUST WHAT YOU PUT INTO IT...........
                         TOM LEHRER - (THE 3 IS SILENT)
 Job cpu time:       0 days 17 hours  6 minutes 35.4 seconds.
 Elapsed time:       0 days  0 hours 43 minutes  2.6 seconds.
 File lengths (MBytes):  RWF=   2830 Int=      0 D2E=      0 Chk=    153 Scr=      1
 Normal termination of Gaussian 16 at Mon Feb  5 22:27:43 2024.
