 Entering Gaussian System, Link 0=g16
 Input=A-Ru_PC_F_Prak_S_T.gjf
 Output=A-Ru_PC_F_Prak_S_T.log
 Initial command:
 /cluster/apps/g16/g16/l1.exe "/beegfs/do57cig/gauss1996886/Gau-23357.inp" -scrdir="/beegfs/do57cig/gauss1996886/"
 Default CPUs for threads: 0-23
 Default is to use a total of  24 processors:
                               24 via shared-memory
                                1 via Linda
 Entering Link 1 = /cluster/apps/g16/g16/l1.exe PID=     23358.
  
 Copyright (c) 1988-2017, Gaussian, Inc.  All Rights Reserved.
  
 This is part of the Gaussian(R) 16 program.  It is based on
 the Gaussian(R) 09 system (copyright 2009, Gaussian, Inc.),
 the Gaussian(R) 03 system (copyright 2003, Gaussian, Inc.),
 the Gaussian(R) 98 system (copyright 1998, Gaussian, Inc.),
 the Gaussian(R) 94 system (copyright 1995, Gaussian, Inc.),
 the Gaussian 92(TM) system (copyright 1992, Gaussian, Inc.),
 the Gaussian 90(TM) system (copyright 1990, Gaussian, Inc.),
 the Gaussian 88(TM) system (copyright 1988, Gaussian, Inc.),
 the Gaussian 86(TM) system (copyright 1986, Carnegie Mellon
 University), and the Gaussian 82(TM) system (copyright 1983,
 Carnegie Mellon University). Gaussian is a federally registered
 trademark of Gaussian, Inc.
  
 This software contains proprietary and confidential information,
 including trade secrets, belonging to Gaussian, Inc.
  
 This software is provided under written license and may be
 used, copied, transmitted, or stored only in accord with that
 written license.
  
 The following legend is applicable only to US Government
 contracts under FAR:
  
                    RESTRICTED RIGHTS LEGEND
  
 Use, reproduction and disclosure by the US Government is
 subject to restrictions as set forth in subparagraphs (a)
 and (c) of the Commercial Computer Software - Restricted
 Rights clause in FAR 52.227-19.
  
 Gaussian, Inc.
 340 Quinnipiac St., Bldg. 40, Wallingford CT 06492
  
  
 ---------------------------------------------------------------
 Warning -- This program may not be used in any manner that
 competes with the business of Gaussian, Inc. or will provide
 assistance to any competitor of Gaussian, Inc.  The licensee
 of this program is prohibited from giving any competitor of
 Gaussian, Inc. access to this program.  By using this program,
 the user acknowledges that Gaussian, Inc. is engaged in the
 business of creating and licensing software in the field of
 computational chemistry and represents and warrants to the
 licensee that it is not a competitor of Gaussian, Inc. and that
 it will not use this program in any manner prohibited above.
 ---------------------------------------------------------------
  

 Cite this work as:
 Gaussian 16, Revision B.01,
 M. J. Frisch, G. W. Trucks, H. B. Schlegel, G. E. Scuseria, 
 M. A. Robb, J. R. Cheeseman, G. Scalmani, V. Barone, 
 G. A. Petersson, H. Nakatsuji, X. Li, M. Caricato, A. V. Marenich, 
 J. Bloino, B. G. Janesko, R. Gomperts, B. Mennucci, H. P. Hratchian, 
 J. V. Ortiz, A. F. Izmaylov, J. L. Sonnenberg, D. Williams-Young, 
 F. Ding, F. Lipparini, F. Egidi, J. Goings, B. Peng, A. Petrone, 
 T. Henderson, D. Ranasinghe, V. G. Zakrzewski, J. Gao, N. Rega, 
 G. Zheng, W. Liang, M. Hada, M. Ehara, K. Toyota, R. Fukuda, 
 J. Hasegawa, M. Ishida, T. Nakajima, Y. Honda, O. Kitao, H. Nakai, 
 T. Vreven, K. Throssell, J. A. Montgomery, Jr., J. E. Peralta, 
 F. Ogliaro, M. J. Bearpark, J. J. Heyd, E. N. Brothers, K. N. Kudin, 
 V. N. Staroverov, T. A. Keith, R. Kobayashi, J. Normand, 
 K. Raghavachari, A. P. Rendell, J. C. Burant, S. S. Iyengar, 
 J. Tomasi, M. Cossi, J. M. Millam, M. Klene, C. Adamo, R. Cammi, 
 J. W. Ochterski, R. L. Martin, K. Morokuma, O. Farkas, 
 J. B. Foresman, and D. J. Fox, Gaussian, Inc., Wallingford CT, 2016.
 
 ******************************************
 Gaussian 16:  ES64L-G16RevB.01 20-Dec-2017
                 9-Nov-2023 
 ******************************************
 %chk=Ru_DFT_F_Prak_S_T.chk
 %Oldchk=Opt_Ru_DFT_F_Prak.chk
 SetSPE:  set environment variable "MP_BIND" = "yes"
 SetSPE:  set environment variable "MP_BLIST" = "0,1,2,3,4,5,6,7,8,9,10,11,12,13,14,15,16,17,18,19,20,21,22,23"
 Copying data from "Opt_Ru_DFT_F_Prak.chk" to current chk file "Ru_DFT_F_Prak_S_T.chk"
 IOpt=  2 FromEx=T IUOpen= 4 IOptOp= 5 NList=   0 IFRang= 0 IUIn= 4 IUOut= 2.
 Default route: CacheSize=81920
 ----------------------------------------------------------------------
 # td=(triplets,nstates=50,conver=3) b3lyp scrf=(smd,solvent=water,chec
 kpoint) def2svp empiricaldispersion=gd3bj int=ultrafine guess=read geo
 m=check
 ----------------------------------------------------------------------
 1/4=81920,29=2,38=1,40=1,172=1/1;
 2/4=81920,12=2,40=1/2;
 3/4=81920,5=43,7=101,11=9,14=-4,25=1,30=1,70=32202,72=1,74=-5,75=-5,116=-2,124=41/1,2,3,8;
 4/4=81920,5=1/1;
 5/4=81920,5=2,38=6,53=1/2;
 8/4=81920,6=1,10=1,108=50/1;
 9/4=81920,9=3,41=50,42=1,48=3,70=2/14;
 6/4=81920,7=2,8=2,9=2,10=2/1;
 99/4=81920,5=1,9=1/99;
 ----------
 Ru_DFT_S_T
 ----------
 Structure from the checkpoint file:  "Ru_DFT_F_Prak_S_T.chk"
 Charge =  0 Multiplicity = 1
 Redundant internal coordinates found in file.  (old form).
 O,0,4.419035884,4.8820878492,10.5088268422
 P,0,6.7492419575,5.3573906467,8.2177382501
 O,0,6.8443380415,7.6757332572,11.6222668577
 N,0,6.3299174748,2.8764758951,9.8058827289
 C,0,7.4026756687,3.6788623602,7.7455627531
 H,0,7.3041997032,3.4701915615,6.6716259296
 H,0,8.4778642023,3.7157116539,7.9796240805
 O,0,8.6029253659,4.485623934,10.509582246
 P,0,6.2633638984,3.7410363327,12.6518348925
 C,0,6.7668124865,2.581381379,8.5601687327
 C,0,6.6264568205,1.2888109538,8.0476104159
 H,0,6.9816953658,1.0681270489,7.0404081496
 C,0,6.0264282648,0.306168094,8.8334297876
 H,0,5.9078520719,-0.7095778935,8.4499187364
 C,0,5.5755855602,0.6321658037,10.111736295
 H,0,5.101475846,-0.1136243925,10.7507997208
 C,0,5.7381263587,1.9381960465,10.5808262108
 C,0,5.2555186855,2.3411614104,11.9513977785
 H,0,5.2096622559,1.4694012243,12.6181953351
 H,0,4.2356803698,2.745510728,11.8591716945
 C,0,8.0464030352,6.5972043194,7.5679506301
 C,0,5.1494230872,5.5319172468,7.1878792918
 C,0,9.2179927552,6.6967536254,8.5563328247
 H,0,9.9343459638,7.4369617173,8.1634167569
 H,0,9.749414049,5.7435142896,8.6670101713
 H,0,8.890505922,7.0472602001,9.5453513348
 C,0,7.400920203,7.9894858456,7.481521266
 H,0,8.1919240426,8.7349538789,7.2982497239
 H,0,6.8984017373,8.2599840948,8.4233587887
 H,0,6.6775539633,8.0712001124,6.6611189669
 Ru,0,6.5286916434,4.9034835955,10.562020176
 C,0,8.625147108,6.1763291186,6.2076059618
 H,0,9.347354349,6.9437346683,5.8814976815
 H,0,7.8671006501,6.0814700123,5.4232369516
 H,0,9.1712728916,5.2243730164,6.2798277517
 C,0,4.3645768339,6.7685219413,7.6749473948
 H,0,3.3026213213,6.659955785,7.4015234136
 H,0,4.7305021581,7.6929502768,7.2120838415
 H,0,4.422155049,6.9147853165,8.7640728351
 C,0,4.3133889633,4.2602901524,7.4369977271
 H,0,3.3398511533,4.3834836706,6.9344314317
 H,0,4.1359622546,4.0987455585,8.5069434429
 H,0,4.7898742818,3.3670841736,7.0096510553
 C,0,5.3765525178,5.6397743469,5.6738710798
 H,0,4.3932299713,5.6186902813,5.1740862861
 H,0,5.9619034903,4.7939059399,5.283703781
 H,0,5.8694748118,6.5753953267,5.3815572496
 C,0,5.1989909795,4.4699836531,14.0596068585
 C,0,7.7873090642,2.8644089407,13.4030275403
 C,0,6.0953779543,5.3127586473,14.9811930334
 H,0,5.4532579138,5.870635801,15.6824588128
 H,0,6.67996221,6.0488370183,14.4073276748
 H,0,6.7858338805,4.706523613,15.5805715007
 C,0,4.4574688397,3.3858181817,14.8579537109
 H,0,3.8632007971,3.8773851286,15.6467275028
 H,0,5.1262538,2.6701711864,15.3468096892
 H,0,3.755357132,2.826819776,14.2219618088
 C,0,4.1412506571,5.4133112464,13.4681931131
 H,0,3.5542196556,5.8311372075,14.3031055075
 H,0,3.4555724004,4.8958545684,12.7882131654
 H,0,4.5963585202,6.2484433356,12.9198254729
 C,0,8.8711379364,3.9130975304,13.7106115303
 H,0,9.7833694471,3.3936377624,14.050024829
 H,0,8.5728634807,4.6082881027,14.5043406283
 H,0,9.1174214767,4.4859808002,12.8074309713
 C,0,8.331833855,1.8848747954,12.3451824327
 H,0,9.2823475117,1.4695591338,12.7198569955
 H,0,8.5316249511,2.3804059892,11.3892381379
 H,0,7.6511196826,1.0383108537,12.179657387
 C,0,7.4775539464,2.0464975468,14.6639943416
 H,0,8.3845391357,1.4827542701,14.9409028242
 H,0,6.6746220824,1.3136798248,14.4947479699
 H,0,7.2088261441,2.6718539326,15.5245162548
 C,0,6.7122717911,6.5881831218,11.2037560095
 H,0,9.0568290495,5.333525897,10.492526874
 H,0,4.1327615358,5.556950391,9.8858554693
 Recover connectivity data from disk.
                           ----------------------------
                           !    Current Parameters    !
                           ! (Angstroms and Degrees)  !
 --------------------------                            --------------------------
 ! Name  Definition              Value                                          !
 --------------------------------------------------------------------------------
 ! R1    R(1,31)                 2.1104                                         !
 ! R2    R(1,76)                 0.962                                          !
 ! R3    R(2,5)                  1.8621                                         !
 ! R4    R(2,21)                 1.9084                                         !
 ! R5    R(2,22)                 1.9106                                         !
 ! R6    R(2,31)                 2.398                                          !
 ! R7    R(3,74)                 1.1728                                         !
 ! R8    R(4,10)                 1.3527                                         !
 ! R9    R(4,17)                 1.3532                                         !
 ! R10   R(4,31)                 2.1726                                         !
 ! R11   R(5,6)                  1.0984                                         !
 ! R12   R(5,7)                  1.101                                          !
 ! R13   R(5,10)                 1.5074                                         !
 ! R14   R(8,31)                 2.1166                                         !
 ! R15   R(8,75)                 0.9619                                         !
 ! R16   R(9,18)                 1.8617                                         !
 ! R17   R(9,31)                 2.406                                          !
 ! R18   R(9,48)                 1.9095                                         !
 ! R19   R(9,49)                 1.9119                                         !
 ! R20   R(10,11)                1.3976                                         !
 ! R21   R(11,12)                1.0906                                         !
 ! R22   R(11,13)                1.394                                          !
 ! R23   R(13,14)                1.0922                                         !
 ! R24   R(13,15)                1.3941                                         !
 ! R25   R(15,16)                1.0906                                         !
 ! R26   R(15,17)                1.3972                                         !
 ! R27   R(17,18)                1.5079                                         !
 ! R28   R(18,19)                1.0985                                         !
 ! R29   R(18,20)                1.1009                                         !
 ! R30   R(21,23)                1.536                                          !
 ! R31   R(21,27)                1.5371                                         !
 ! R32   R(21,32)                1.5371                                         !
 ! R33   R(22,36)                1.5435                                         !
 ! R34   R(22,40)                1.5421                                         !
 ! R35   R(22,44)                1.5347                                         !
 ! R36   R(23,24)                1.1025                                         !
 ! R37   R(23,25)                1.097                                          !
 ! R38   R(23,26)                1.0992                                         !
 ! R39   R(27,28)                1.1023                                         !
 ! R40   R(27,29)                1.1013                                         !
 ! R41   R(27,30)                1.0968                                         !
 ! R42   R(31,74)                1.8121                                         !
 ! R43   R(32,33)                1.1031                                         !
 ! R44   R(32,34)                1.0949                                         !
 ! R45   R(32,35)                1.0999                                         !
 ! R46   R(36,37)                1.102                                          !
 ! R47   R(36,38)                1.0967                                         !
 ! R48   R(36,39)                1.1004                                         !
 ! R49   R(40,41)                1.1025                                         !
 ! R50   R(40,42)                1.0965                                         !
 ! R51   R(40,43)                1.0989                                         !
 ! R52   R(44,45)                1.1032                                         !
 ! R53   R(44,46)                1.1002                                         !
 ! R54   R(44,47)                1.0972                                         !
 ! R55   R(48,50)                1.5372                                         !
 ! R56   R(48,54)                1.5371                                         !
 ! R57   R(48,58)                1.5357                                         !
 ! R58   R(49,62)                1.5392                                         !
 ! R59   R(49,66)                1.5411                                         !
 ! R60   R(49,70)                1.5346                                         !
 ! R61   R(50,51)                1.1024                                         !
 ! R62   R(50,52)                1.1013                                         !
 ! R63   R(50,53)                1.097                                          !
 ! R64   R(54,55)                1.1032                                         !
 ! R65   R(54,56)                1.0947                                         !
 ! R66   R(54,57)                1.1                                            !
 ! R67   R(58,59)                1.1028                                         !
 ! R68   R(58,60)                1.0956                                         !
 ! R69   R(58,61)                1.0979                                         !
 ! R70   R(62,63)                1.1033                                         !
 ! R71   R(62,64)                1.0965                                         !
 ! R72   R(62,65)                1.0975                                         !
 ! R73   R(66,67)                1.1029                                         !
 ! R74   R(66,68)                1.0951                                         !
 ! R75   R(66,69)                1.0988                                         !
 ! R76   R(70,71)                1.1032                                         !
 ! R77   R(70,72)                1.1002                                         !
 ! R78   R(70,73)                1.0972                                         !
 ! A1    A(31,1,76)            107.859                                          !
 ! A2    A(5,2,21)             105.1152                                         !
 ! A3    A(5,2,22)             103.8565                                         !
 ! A4    A(5,2,31)              96.2889                                         !
 ! A5    A(21,2,22)            109.0425                                         !
 ! A6    A(21,2,31)            121.2217                                         !
 ! A7    A(22,2,31)            117.8543                                         !
 ! A8    A(10,4,17)            121.1564                                         !
 ! A9    A(10,4,31)            119.6371                                         !
 ! A10   A(17,4,31)            119.1848                                         !
 ! A11   A(2,5,6)              112.8113                                         !
 ! A12   A(2,5,7)              104.9878                                         !
 ! A13   A(2,5,10)             111.7911                                         !
 ! A14   A(6,5,7)              107.5631                                         !
 ! A15   A(6,5,10)             110.6227                                         !
 ! A16   A(7,5,10)             108.7487                                         !
 ! A17   A(31,8,75)            106.7896                                         !
 ! A18   A(18,9,31)             95.5203                                         !
 ! A19   A(18,9,48)            105.2286                                         !
 ! A20   A(18,9,49)            103.566                                          !
 ! A21   A(31,9,48)            121.1574                                         !
 ! A22   A(31,9,49)            118.353                                          !
 ! A23   A(48,9,49)            109.2496                                         !
 ! A24   A(4,10,5)             118.3639                                         !
 ! A25   A(4,10,11)            120.4696                                         !
 ! A26   A(5,10,11)            121.1665                                         !
 ! A27   A(10,11,12)           119.5484                                         !
 ! A28   A(10,11,13)           119.239                                          !
 ! A29   A(12,11,13)           121.2116                                         !
 ! A30   A(11,13,14)           120.2897                                         !
 ! A31   A(11,13,15)           119.4234                                         !
 ! A32   A(14,13,15)           120.2867                                         !
 ! A33   A(13,15,16)           121.1965                                         !
 ! A34   A(13,15,17)           119.2616                                         !
 ! A35   A(16,15,17)           119.5417                                         !
 ! A36   A(4,17,15)            120.4473                                         !
 ! A37   A(4,17,18)            118.3721                                         !
 ! A38   A(15,17,18)           121.1797                                         !
 ! A39   A(9,18,17)            111.6939                                         !
 ! A40   A(9,18,19)            113.0134                                         !
 ! A41   A(9,18,20)            104.8817                                         !
 ! A42   A(17,18,19)           110.6717                                         !
 ! A43   A(17,18,20)           108.5713                                         !
 ! A44   A(19,18,20)           107.6769                                         !
 ! A45   A(2,21,23)            109.9653                                         !
 ! A46   A(2,21,27)            108.7943                                         !
 ! A47   A(2,21,32)            112.2951                                         !
 ! A48   A(23,21,27)           107.3245                                         !
 ! A49   A(23,21,32)           107.4596                                         !
 ! A50   A(27,21,32)           110.8778                                         !
 ! A51   A(2,22,36)            109.1994                                         !
 ! A52   A(2,22,40)            106.9508                                         !
 ! A53   A(2,22,44)            114.4712                                         !
 ! A54   A(36,22,40)           109.5119                                         !
 ! A55   A(36,22,44)           109.2836                                         !
 ! A56   A(40,22,44)           107.3103                                         !
 ! A57   A(21,23,24)           108.0463                                         !
 ! A58   A(21,23,25)           112.2165                                         !
 ! A59   A(21,23,26)           111.8625                                         !
 ! A60   A(24,23,25)           107.7352                                         !
 ! A61   A(24,23,26)           107.4672                                         !
 ! A62   A(25,23,26)           109.3079                                         !
 ! A63   A(21,27,28)           108.6986                                         !
 ! A64   A(21,27,29)           111.4709                                         !
 ! A65   A(21,27,30)           112.7372                                         !
 ! A66   A(28,27,29)           107.6703                                         !
 ! A67   A(28,27,30)           107.3691                                         !
 ! A68   A(29,27,30)           108.691                                          !
 ! A69   A(1,31,2)              93.9691                                         !
 ! A70   A(1,31,4)              83.7025                                         !
 ! A71   A(1,31,9)              84.6499                                         !
 ! A72   A(1,31,74)             96.8702                                         !
 ! A73   A(2,31,4)              81.0701                                         !
 ! A74   A(2,31,8)              85.5847                                         !
 ! A75   A(2,31,9)             161.9366                                         !
 ! A76   A(2,31,74)             99.2598                                         !
 ! A77   A(4,31,8)              84.079                                          !
 ! A78   A(4,31,9)              80.8766                                         !
 ! A79   A(8,31,9)              91.9603                                         !
 ! A80   A(8,31,74)             95.3383                                         !
 ! A81   A(9,31,74)             98.7861                                         !
 ! A82   A(21,32,33)           108.5214                                         !
 ! A83   A(21,32,34)           113.3935                                         !
 ! A84   A(21,32,35)           111.4591                                         !
 ! A85   A(33,32,34)           107.5634                                         !
 ! A86   A(33,32,35)           107.2446                                         !
 ! A87   A(34,32,35)           108.4105                                         !
 ! A88   A(22,36,37)           109.4386                                         !
 ! A89   A(22,36,38)           111.8687                                         !
 ! A90   A(22,36,39)           113.0918                                         !
 ! A91   A(37,36,38)           107.4503                                         !
 ! A92   A(37,36,39)           108.0052                                         !
 ! A93   A(38,36,39)           106.7521                                         !
 ! A94   A(22,40,41)           108.2367                                         !
 ! A95   A(22,40,42)           111.5208                                         !
 ! A96   A(22,40,43)           111.8623                                         !
 ! A97   A(41,40,42)           108.5645                                         !
 ! A98   A(41,40,43)           107.2443                                         !
 ! A99   A(42,40,43)           109.2619                                         !
 ! A100  A(22,44,45)           108.279                                          !
 ! A101  A(22,44,46)           111.9971                                         !
 ! A102  A(22,44,47)           112.9071                                         !
 ! A103  A(45,44,46)           107.3898                                         !
 ! A104  A(45,44,47)           107.2194                                         !
 ! A105  A(46,44,47)           108.7914                                         !
 ! A106  A(9,48,50)            109.0411                                         !
 ! A107  A(9,48,54)            112.4929                                         !
 ! A108  A(9,48,58)            109.542                                          !
 ! A109  A(50,48,54)           110.893                                          !
 ! A110  A(50,48,58)           107.2018                                         !
 ! A111  A(54,48,58)           107.5181                                         !
 ! A112  A(9,49,62)            109.1113                                         !
 ! A113  A(9,49,66)            107.6606                                         !
 ! A114  A(9,49,70)            113.9755                                         !
 ! A115  A(62,49,66)           108.7491                                         !
 ! A116  A(62,49,70)           109.942                                          !
 ! A117  A(66,49,70)           107.2523                                         !
 ! A118  A(48,50,51)           108.6115                                         !
 ! A119  A(48,50,52)           111.319                                          !
 ! A120  A(48,50,53)           113.0531                                         !
 ! A121  A(51,50,52)           107.6029                                         !
 ! A122  A(51,50,53)           107.379                                          !
 ! A123  A(52,50,53)           108.6605                                         !
 ! A124  A(48,54,55)           108.4787                                         !
 ! A125  A(48,54,56)           113.473                                          !
 ! A126  A(48,54,57)           111.4737                                         !
 ! A127  A(55,54,56)           107.524                                          !
 ! A128  A(55,54,57)           107.2185                                         !
 ! A129  A(56,54,57)           108.4168                                         !
 ! A130  A(48,58,59)           107.9262                                         !
 ! A131  A(48,58,60)           112.3313                                         !
 ! A132  A(48,58,61)           111.9686                                         !
 ! A133  A(59,58,60)           108.4017                                         !
 ! A134  A(59,58,61)           108.0954                                         !
 ! A135  A(60,58,61)           107.9822                                         !
 ! A136  A(49,62,63)           108.8393                                         !
 ! A137  A(49,62,64)           112.6492                                         !
 ! A138  A(49,62,65)           110.4384                                         !
 ! A139  A(63,62,64)           107.5025                                         !
 ! A140  A(63,62,65)           108.2635                                         !
 ! A141  A(64,62,65)           109.0142                                         !
 ! A142  A(49,66,67)           108.1                                            !
 ! A143  A(49,66,68)           112.0884                                         !
 ! A144  A(49,66,69)           111.9745                                         !
 ! A145  A(67,66,68)           108.0418                                         !
 ! A146  A(67,66,69)           107.155                                          !
 ! A147  A(68,66,69)           109.2767                                         !
 ! A148  A(49,70,71)           108.2192                                         !
 ! A149  A(49,70,72)           112.0816                                         !
 ! A150  A(49,70,73)           112.9618                                         !
 ! A151  A(71,70,72)           107.3524                                         !
 ! A152  A(71,70,73)           107.2027                                         !
 ! A153  A(72,70,73)           108.7571                                         !
 ! A154  L(1,31,8,2,-1)        179.5538                                         !
 ! A155  L(4,31,74,1,-1)       180.5728                                         !
 ! A156  L(3,74,31,21,-1)      179.9201                                         !
 ! A157  L(1,31,8,2,-2)        192.3327                                         !
 ! A158  L(4,31,74,1,-2)       179.615                                          !
 ! A159  L(3,74,31,21,-2)      179.2937                                         !
 ! D1    D(76,1,31,2)          -36.8617                                         !
 ! D2    D(76,1,31,4)         -117.4109                                         !
 ! D3    D(76,1,31,9)          161.2095                                         !
 ! D4    D(76,1,31,74)          62.9741                                         !
 ! D5    D(21,2,5,6)           -73.7086                                         !
 ! D6    D(21,2,5,7)            43.1308                                         !
 ! D7    D(21,2,5,10)          160.8653                                         !
 ! D8    D(22,2,5,6)            40.7929                                         !
 ! D9    D(22,2,5,7)           157.6323                                         !
 ! D10   D(22,2,5,10)          -84.6332                                         !
 ! D11   D(31,2,5,6)           161.5451                                         !
 ! D12   D(31,2,5,7)           -81.6155                                         !
 ! D13   D(31,2,5,10)           36.119                                          !
 ! D14   D(5,2,21,23)          -81.437                                          !
 ! D15   D(5,2,21,27)          161.2855                                         !
 ! D16   D(5,2,21,32)           38.1648                                         !
 ! D17   D(22,2,21,23)         167.7289                                         !
 ! D18   D(22,2,21,27)          50.4515                                         !
 ! D19   D(22,2,21,32)         -72.6693                                         !
 ! D20   D(31,2,21,23)          25.8048                                         !
 ! D21   D(31,2,21,27)         -91.4727                                         !
 ! D22   D(31,2,21,32)         145.4066                                         !
 ! D23   D(5,2,22,36)          169.6164                                         !
 ! D24   D(5,2,22,40)           51.2001                                         !
 ! D25   D(5,2,22,44)          -67.5165                                         !
 ! D26   D(21,2,22,36)         -78.7134                                         !
 ! D27   D(21,2,22,40)         162.8703                                         !
 ! D28   D(21,2,22,44)          44.1537                                         !
 ! D29   D(31,2,22,36)          64.6672                                         !
 ! D30   D(31,2,22,40)         -53.7491                                         !
 ! D31   D(31,2,22,44)        -172.4657                                         !
 ! D32   D(5,2,31,1)          -109.296                                          !
 ! D33   D(5,2,31,4)           -26.3154                                         !
 ! D34   D(5,2,31,8)            58.3713                                         !
 ! D35   D(5,2,31,9)           -24.3844                                         !
 ! D36   D(5,2,31,74)          153.0723                                         !
 ! D37   D(21,2,31,1)          138.7682                                         !
 ! D38   D(21,2,31,4)         -138.2512                                         !
 ! D39   D(21,2,31,8)          -53.5645                                         !
 ! D40   D(21,2,31,9)         -136.3202                                         !
 ! D41   D(21,2,31,74)          41.1365                                         !
 ! D42   D(22,2,31,1)            0.0184                                         !
 ! D43   D(22,2,31,4)           82.999                                          !
 ! D44   D(22,2,31,8)          167.6857                                         !
 ! D45   D(22,2,31,9)           84.9301                                         !
 ! D46   D(22,2,31,74)         -97.6132                                         !
 ! D47   D(17,4,10,5)          179.309                                          !
 ! D48   D(17,4,10,11)          -0.5919                                         !
 ! D49   D(31,4,10,5)            1.0184                                         !
 ! D50   D(31,4,10,11)        -178.8825                                         !
 ! D51   D(10,4,17,15)           0.5849                                         !
 ! D52   D(10,4,17,18)        -179.0654                                         !
 ! D53   D(31,4,17,15)         178.8832                                         !
 ! D54   D(31,4,17,18)          -0.7672                                         !
 ! D55   D(10,4,31,1)          114.0211                                         !
 ! D56   D(10,4,31,2)           18.9822                                         !
 ! D57   D(10,4,31,8)          -67.4603                                         !
 ! D58   D(10,4,31,9)         -160.4115                                         !
 ! D59   D(17,4,31,1)          -64.3034                                         !
 ! D60   D(17,4,31,2)         -159.3423                                         !
 ! D61   D(17,4,31,8)          114.2152                                         !
 ! D62   D(17,4,31,9)           21.264                                          !
 ! D63   D(2,5,10,4)           -28.2328                                         !
 ! D64   D(2,5,10,11)          151.6674                                         !
 ! D65   D(6,5,10,4)          -154.8576                                         !
 ! D66   D(6,5,10,11)           25.0425                                         !
 ! D67   D(7,5,10,4)            87.2236                                         !
 ! D68   D(7,5,10,11)          -92.8763                                         !
 ! D69   D(75,8,31,2)           77.5767                                         !
 ! D70   D(75,8,31,4)          159.0359                                         !
 ! D71   D(75,8,31,9)         -120.3484                                         !
 ! D72   D(75,8,31,74)         -21.333                                          !
 ! D73   D(31,9,18,17)          37.7569                                         !
 ! D74   D(31,9,18,19)         163.3306                                         !
 ! D75   D(31,9,18,20)         -79.6543                                         !
 ! D76   D(48,9,18,17)         162.1612                                         !
 ! D77   D(48,9,18,19)         -72.2651                                         !
 ! D78   D(48,9,18,20)          44.75                                           !
 ! D79   D(49,9,18,17)         -83.1823                                         !
 ! D80   D(49,9,18,19)          42.3914                                         !
 ! D81   D(49,9,18,20)         159.4065                                         !
 ! D82   D(18,9,31,1)           56.3402                                         !
 ! D83   D(18,9,31,2)          -30.0518                                         !
 ! D84   D(18,9,31,4)          -28.1197                                         !
 ! D85   D(18,9,31,8)         -111.8023                                         !
 ! D86   D(18,9,31,74)         152.4882                                         !
 ! D87   D(48,9,31,1)          -55.1789                                         !
 ! D88   D(48,9,31,2)         -141.5709                                         !
 ! D89   D(48,9,31,4)         -139.6388                                         !
 ! D90   D(48,9,31,8)          136.6786                                         !
 ! D91   D(48,9,31,74)          40.9691                                         !
 ! D92   D(49,9,31,1)          164.9992                                         !
 ! D93   D(49,9,31,2)           78.6072                                         !
 ! D94   D(49,9,31,4)           80.5393                                         !
 ! D95   D(49,9,31,8)           -3.1433                                         !
 ! D96   D(49,9,31,74)         -98.8529                                         !
 ! D97   D(18,9,48,50)         162.0635                                         !
 ! D98   D(18,9,48,54)          38.6117                                         !
 ! D99   D(18,9,48,58)         -80.905                                          !
 ! D100  D(31,9,48,50)         -91.6109                                         !
 ! D101  D(31,9,48,54)         144.9373                                         !
 ! D102  D(31,9,48,58)          25.4207                                         !
 ! D103  D(49,9,48,50)          51.4194                                         !
 ! D104  D(49,9,48,54)         -72.0325                                         !
 ! D105  D(49,9,48,58)         168.4509                                         !
 ! D106  D(18,9,49,62)         166.1715                                         !
 ! D107  D(18,9,49,66)          48.311                                          !
 ! D108  D(18,9,49,70)         -70.5201                                         !
 ! D109  D(31,9,49,62)          62.1278                                         !
 ! D110  D(31,9,49,66)         -55.7326                                         !
 ! D111  D(31,9,49,70)        -174.5638                                         !
 ! D112  D(48,9,49,62)         -82.0837                                         !
 ! D113  D(48,9,49,66)         160.0558                                         !
 ! D114  D(48,9,49,70)          41.2247                                         !
 ! D115  D(4,10,11,12)         179.8431                                         !
 ! D116  D(4,10,11,13)           0.2089                                         !
 ! D117  D(5,10,11,12)          -0.055                                          !
 ! D118  D(5,10,11,13)        -179.6892                                         !
 ! D119  D(10,11,13,14)        179.9896                                         !
 ! D120  D(10,11,13,15)          0.1692                                         !
 ! D121  D(12,11,13,14)          0.3617                                         !
 ! D122  D(12,11,13,15)       -179.4587                                         !
 ! D123  D(11,13,15,16)        179.9617                                         !
 ! D124  D(11,13,15,17)         -0.1758                                         !
 ! D125  D(14,13,15,16)          0.1413                                         !
 ! D126  D(14,13,15,17)       -179.9963                                         !
 ! D127  D(13,15,17,4)          -0.1952                                         !
 ! D128  D(13,15,17,18)        179.4452                                         !
 ! D129  D(16,15,17,4)         179.6695                                         !
 ! D130  D(16,15,17,18)         -0.6901                                         !
 ! D131  D(4,17,18,9)          -28.5249                                         !
 ! D132  D(4,17,18,19)        -155.3804                                         !
 ! D133  D(4,17,18,20)          86.6413                                         !
 ! D134  D(15,17,18,9)         151.8274                                         !
 ! D135  D(15,17,18,19)         24.9719                                         !
 ! D136  D(15,17,18,20)        -93.0064                                         !
 ! D137  D(2,21,23,24)        -178.6436                                         !
 ! D138  D(2,21,23,25)          62.727                                          !
 ! D139  D(2,21,23,26)         -60.552                                          !
 ! D140  D(27,21,23,24)        -60.4546                                         !
 ! D141  D(27,21,23,25)       -179.084                                          !
 ! D142  D(27,21,23,26)         57.6371                                         !
 ! D143  D(32,21,23,24)         58.8501                                         !
 ! D144  D(32,21,23,25)        -59.7793                                         !
 ! D145  D(32,21,23,26)        176.9417                                         !
 ! D146  D(2,21,27,28)         169.0763                                         !
 ! D147  D(2,21,27,29)          50.5558                                         !
 ! D148  D(2,21,27,30)         -72.006                                          !
 ! D149  D(23,21,27,28)         50.1307                                         !
 ! D150  D(23,21,27,29)        -68.3898                                         !
 ! D151  D(23,21,27,30)        169.0484                                         !
 ! D152  D(32,21,27,28)        -66.9572                                         !
 ! D153  D(32,21,27,29)        174.5224                                         !
 ! D154  D(32,21,27,30)         51.9606                                         !
 ! D155  D(2,21,32,33)         178.748                                          !
 ! D156  D(2,21,32,34)          59.2974                                         !
 ! D157  D(2,21,32,35)         -63.372                                          !
 ! D158  D(23,21,32,33)        -60.1992                                         !
 ! D159  D(23,21,32,34)       -179.6498                                         !
 ! D160  D(23,21,32,35)         57.6807                                         !
 ! D161  D(27,21,32,33)         56.8057                                         !
 ! D162  D(27,21,32,34)        -62.6449                                         !
 ! D163  D(27,21,32,35)        174.6857                                         !
 ! D164  D(2,22,36,37)        -157.4126                                         !
 ! D165  D(2,22,36,38)          83.6202                                         !
 ! D166  D(2,22,36,39)         -36.9611                                         !
 ! D167  D(40,22,36,37)        -40.6094                                         !
 ! D168  D(40,22,36,38)       -159.5766                                         !
 ! D169  D(40,22,36,39)         79.8421                                         !
 ! D170  D(44,22,36,37)         76.6756                                         !
 ! D171  D(44,22,36,38)        -42.2916                                         !
 ! D172  D(44,22,36,39)       -162.8729                                         !
 ! D173  D(2,22,40,41)         174.3208                                         !
 ! D174  D(2,22,40,42)          54.9632                                         !
 ! D175  D(2,22,40,43)         -67.7413                                         !
 ! D176  D(36,22,40,41)         56.1083                                         !
 ! D177  D(36,22,40,42)        -63.2493                                         !
 ! D178  D(36,22,40,43)        174.0462                                         !
 ! D179  D(44,22,40,41)        -62.4091                                         !
 ! D180  D(44,22,40,42)        178.2333                                         !
 ! D181  D(44,22,40,43)         55.5288                                         !
 ! D182  D(2,22,44,45)         173.5794                                         !
 ! D183  D(2,22,44,46)          55.3567                                         !
 ! D184  D(2,22,44,47)         -67.8637                                         !
 ! D185  D(36,22,44,45)        -63.599                                          !
 ! D186  D(36,22,44,46)        178.1782                                         !
 ! D187  D(36,22,44,47)         54.9579                                         !
 ! D188  D(40,22,44,45)         55.0659                                         !
 ! D189  D(40,22,44,46)        -63.1569                                         !
 ! D190  D(40,22,44,47)        173.6228                                         !
 ! D191  D(9,48,50,51)         170.1802                                         !
 ! D192  D(9,48,50,52)          51.8878                                         !
 ! D193  D(9,48,50,53)         -70.7521                                         !
 ! D194  D(54,48,50,51)        -65.4217                                         !
 ! D195  D(54,48,50,52)        176.2859                                         !
 ! D196  D(54,48,50,53)         53.646                                          !
 ! D197  D(58,48,50,51)         51.6725                                         !
 ! D198  D(58,48,50,52)        -66.6199                                         !
 ! D199  D(58,48,50,53)        170.7402                                         !
 ! D200  D(9,48,54,55)        -179.7634                                         !
 ! D201  D(9,48,54,56)          60.8147                                         !
 ! D202  D(9,48,54,57)         -61.9335                                         !
 ! D203  D(50,48,54,55)         57.8236                                         !
 ! D204  D(50,48,54,56)        -61.5983                                         !
 ! D205  D(50,48,54,57)        175.6535                                         !
 ! D206  D(58,48,54,55)        -59.0765                                         !
 ! D207  D(58,48,54,56)       -178.4983                                         !
 ! D208  D(58,48,54,57)         58.7534                                         !
 ! D209  D(9,48,58,59)        -179.0696                                         !
 ! D210  D(9,48,58,60)          61.4868                                         !
 ! D211  D(9,48,58,61)         -60.2207                                         !
 ! D212  D(50,48,58,59)        -60.887                                          !
 ! D213  D(50,48,58,60)        179.6694                                         !
 ! D214  D(50,48,58,61)         57.9619                                         !
 ! D215  D(54,48,58,59)         58.4009                                         !
 ! D216  D(54,48,58,60)        -61.0427                                         !
 ! D217  D(54,48,58,61)        177.2498                                         !
 ! D218  D(9,49,62,63)        -174.4831                                         !
 ! D219  D(9,49,62,64)          66.3934                                         !
 ! D220  D(9,49,62,65)         -55.7637                                         !
 ! D221  D(66,49,62,63)        -57.3099                                         !
 ! D222  D(66,49,62,64)       -176.4334                                         !
 ! D223  D(66,49,62,65)         61.4095                                         !
 ! D224  D(70,49,62,63)         59.8409                                         !
 ! D225  D(70,49,62,64)        -59.2826                                         !
 ! D226  D(70,49,62,65)        178.5603                                         !
 ! D227  D(9,49,66,67)         172.9546                                         !
 ! D228  D(9,49,66,68)          53.9888                                         !
 ! D229  D(9,49,66,69)         -69.2373                                         !
 ! D230  D(62,49,66,67)         54.8603                                         !
 ! D231  D(62,49,66,68)        -64.1055                                         !
 ! D232  D(62,49,66,69)        172.6684                                         !
 ! D233  D(70,49,66,67)        -63.9927                                         !
 ! D234  D(70,49,66,68)        177.0415                                         !
 ! D235  D(70,49,66,69)         53.8154                                         !
 ! D236  D(9,49,70,71)         172.8671                                         !
 ! D237  D(9,49,70,72)          54.6785                                         !
 ! D238  D(9,49,70,73)         -68.6032                                         !
 ! D239  D(62,49,70,71)        -64.2768                                         !
 ! D240  D(62,49,70,72)        177.5347                                         !
 ! D241  D(62,49,70,73)         54.253                                          !
 ! D242  D(66,49,70,71)         53.8038                                         !
 ! D243  D(66,49,70,72)        -64.3848                                         !
 ! D244  D(66,49,70,73)        172.3335                                         !
 --------------------------------------------------------------------------------
 Stoichiometry    C24H45NO3P2Ru
 Framework group  C1[X(C24H45NO3P2Ru)]
 Deg. of freedom   222
 Full point group                 C1      NOp   1
 Largest Abelian subgroup         C1      NOp   1
 Largest concise Abelian subgroup C1      NOp   1
                         Standard orientation:                         
 ---------------------------------------------------------------------
 Center     Atomic      Atomic             Coordinates (Angstroms)
 Number     Number       Type             X           Y           Z
 ---------------------------------------------------------------------
      1          8           0        0.070924   -0.255714   -2.107992
      2         15           0       -2.366025   -0.129806    0.116933
      3          8           0        0.003228   -3.498117   -0.008342
      4          7           0        0.009301    1.659039    0.012857
      5          6           0       -2.257072    1.529788    0.954345
      6          1           0       -3.183285    2.113506    0.864996
      7          1           0       -2.110015    1.301250    2.021265
      8          8           0       -0.019439   -0.321531    2.093153
      9         15           0        2.372893   -0.143517   -0.111901
     10          6           0       -1.076770    2.328253    0.462706
     11          6           0       -1.096882    3.725657    0.466275
     12          1           0       -1.981374    4.249881    0.829888
     13          6           0        0.014404    4.423810   -0.003575
     14          1           0        0.017083    5.515986   -0.008708
     15          6           0        1.120929    3.715795   -0.470392
     16          1           0        2.005280    4.232536   -0.844942
     17          6           0        1.094462    2.318936   -0.454139
     18          6           0        2.262140    1.510056   -0.960102
     19          1           0        3.192945    2.089674   -0.894281
     20          1           0        2.090561    1.272543   -2.021339
     21          6           0       -3.478180   -1.187462    1.251156
     22          6           0       -3.302510    0.237862   -1.507353
     23          6           0       -2.652753   -1.750849    2.417645
     24          1           0       -3.318208   -2.374518    3.037047
     25          1           0       -2.245334   -0.958866    3.058032
     26          1           0       -1.832151   -2.392225    2.066206
     27          6           0       -4.010057   -2.384361    0.446727
     28          1           0       -4.485352   -3.094748    1.142746
     29          1           0       -3.196028   -2.916518   -0.069913
     30          1           0       -4.766291   -2.095366   -0.293265
     31         44           0       -0.002564   -0.513314   -0.014627
     32          6           0       -4.635310   -0.375521    1.854828
     33          1           0       -5.248099   -1.048691    2.477863
     34          1           0       -5.294242    0.068502    1.101490
     35          1           0       -4.265117    0.427333    2.509101
     36          6           0       -3.235916   -1.002497   -2.423587
     37          1           0       -3.395460   -0.694747   -3.469595
     38          1           0       -4.011933   -1.736358   -2.174675
     39          1           0       -2.271446   -1.529317   -2.367361
     40          6           0       -2.579316    1.418830   -2.185848
     41          1           0       -3.039020    1.582907   -3.174420
     42          1           0       -1.512345    1.209345   -2.327441
     43          1           0       -2.693109    2.350821   -1.614950
     44          6           0       -4.768812    0.649021   -1.316705
     45          1           0       -5.174968    0.947268   -2.298152
     46          1           0       -4.870342    1.512568   -0.642658
     47          1           0       -5.396183   -0.168690   -0.940460
     48          6           0        3.493395   -1.208244   -1.233020
     49          6           0        3.298196    0.247911    1.514682
     50          6           0        4.011767   -2.410456   -0.427367
     51          1           0        4.508026   -3.110295   -1.119661
     52          1           0        3.185731   -2.952670    0.058987
     53          1           0        4.746332   -2.130280    0.337760
     54          6           0        4.659635   -0.405449   -1.831378
     55          1           0        5.258288   -1.079527   -2.467137
     56          1           0        5.330238    0.017752   -1.076662
     57          1           0        4.298587    0.411854   -2.472929
     58          6           0        2.668656   -1.766521   -2.402030
     59          1           0        3.335834   -2.389096   -3.021334
     60          1           0        2.251048   -0.974001   -3.032748
     61          1           0        1.838967   -2.396401   -2.055416
     62          6           0        3.160019   -0.948222    2.473438
     63          1           0        3.608933   -0.679872    3.444865
     64          1           0        3.675920   -1.844077    2.107987
     65          1           0        2.101536   -1.187239    2.637973
     66          6           0        2.621084    1.475901    2.153894
     67          1           0        3.064492    1.630995    3.151731
     68          1           0        1.542826    1.332269    2.280486
     69          1           0        2.799396    2.392088    1.574025
     70          6           0        4.780434    0.594888    1.320930
     71          1           0        5.186643    0.927041    2.291381
     72          1           0        4.922230    1.419321    0.606388
     73          1           0        5.381589   -0.262709    0.993940
     74          6           0       -0.001003   -2.325417   -0.019027
     75          1           0       -0.356552   -1.150909    2.444928
     76          1           0       -0.731867   -0.633296   -2.480072
 ---------------------------------------------------------------------
 Rotational constants (GHZ):           0.1949606           0.1076916           0.0950749
 Standard basis: def2SVP (5D, 7F)
 There are   719 symmetry adapted cartesian basis functions of A   symmetry.
 There are   684 symmetry adapted basis functions of A   symmetry.
   684 basis functions,  1154 primitive gaussians,   719 cartesian basis functions
   133 alpha electrons      133 beta electrons
       nuclear repulsion energy      4528.7782012454 Hartrees.
 NAtoms=   76 NActive=   76 NUniq=   76 SFac= 1.00D+00 NAtFMM=   60 NAOKFM=T Big=T
 Integral buffers will be    131072 words long.
 Regular integral format.
 Two-electron integral symmetry is turned on.
 Nuclear repulsion after empirical dispersion term =     4528.5573849125 Hartrees.
 ------------------------------------------------------------------------------
 Polarizable Continuum Model (PCM)
 =================================
 Model                : PCM.
 Atomic radii         : SMD-Coulomb.
 Polarization charges : Total charges.
 Charge compensation  : None.
 Solution method      : On-the-fly selection.
 Cavity type          : VdW (van der Waals Surface) (Alpha=1.000).
 Cavity algorithm     : GePol (No added spheres)
                        Default sphere list used, NSphG=   76.
                        Lebedev-Laikov grids with approx.  5.0 points / Ang**2.
                        Smoothing algorithm: York/Karplus (Gamma=1.0000).
                        Polarization charges: spherical gaussians, with
                                              point-specific exponents (IZeta= 3).
                        Self-potential: point-specific (ISelfS= 7).
                        Self-field    : sphere-specific E.n sum rule (ISelfD= 2).
 Solvent              : Water, Eps=  78.355300 Eps(inf)=   1.777849
 ------------------------------------------------------------------------------
 ------------------------------------------------------------------------------
 Atomic radii for non-electrostatic terms: SMD-CDS.
 ------------------------------------------------------------------------------
 Nuclear repulsion after PCM non-electrostatic terms =     4528.5770150028 Hartrees.
 One-electron integrals computed using PRISM.
   1 Symmetry operations used in ECPInt.
 ECPInt:  NShTT=   54615 NPrTT=  190596 LenC2=   48091 LenP2D=  113738.
 LDataN:  DoStor=T MaxTD1= 7 Len=  274
 NBasis=   684 RedAO= T EigKep=  4.77D-04  NBF=   684
 NBsUse=   684 1.00D-06 EigRej= -1.00D+00 NBFU=   684
 Defaulting to unpruned grid for atomic number  44.
 Initial guess from the checkpoint file:  "Ru_DFT_F_Prak_S_T.chk"
 B after Tr=     0.000000    0.000000   -0.000000
         Rot=    1.000000    0.000000    0.000000    0.000000 Ang=   0.00 deg.
 Requested convergence on RMS density matrix=1.00D-08 within 128 cycles.
 Requested convergence on MAX density matrix=1.00D-06.
 Requested convergence on             energy=1.00D-06.
 No special actions if energy rises.
 Defaulting to unpruned grid for atomic number  44.
 Defaulting to unpruned grid for atomic number  44.
 Defaulting to unpruned grid for atomic number  44.
 Defaulting to unpruned grid for atomic number  44.
 Defaulting to unpruned grid for atomic number  44.
 Defaulting to unpruned grid for atomic number  44.
 Defaulting to unpruned grid for atomic number  44.
 Defaulting to unpruned grid for atomic number  44.
 Defaulting to unpruned grid for atomic number  44.
 Defaulting to unpruned grid for atomic number  44.
 Defaulting to unpruned grid for atomic number  44.
 Defaulting to unpruned grid for atomic number  44.
 Defaulting to unpruned grid for atomic number  44.
 Defaulting to unpruned grid for atomic number  44.
 Defaulting to unpruned grid for atomic number  44.
 Defaulting to unpruned grid for atomic number  44.
 Defaulting to unpruned grid for atomic number  44.
 Defaulting to unpruned grid for atomic number  44.
 Defaulting to unpruned grid for atomic number  44.
 Defaulting to unpruned grid for atomic number  44.
 Defaulting to unpruned grid for atomic number  44.
 Defaulting to unpruned grid for atomic number  44.
 Defaulting to unpruned grid for atomic number  44.
 Defaulting to unpruned grid for atomic number  44.
 Inv3:  Mode=1 IEnd=    65230707.
 Iteration    1 A*A^-1 deviation from unit magnitude is 3.33D-15 for   3055.
 Iteration    1 A*A^-1 deviation from orthogonality  is 2.67D-15 for   1723   1448.
 Iteration    1 A^-1*A deviation from unit magnitude is 3.22D-15 for   1909.
 Iteration    1 A^-1*A deviation from orthogonality  is 1.67D-15 for   4090   1142.
 Error on total polarization charges =  0.07567
 SCF Done:  E(RB3LYP) =  -1998.99859128     A.U. after    1 cycles
            NFock=  1  Conv=0.37D-08     -V/T= 2.0403
 SMD-CDS (non-electrostatic) energy       (kcal/mol) =      12.32
 (included in total energy above)
 DoSCS=F DFT=T ScalE2(SS,OS)=  1.000000  1.000000
 ExpMin= 3.92D-02 ExpMax= 8.00D+03 ExpMxC= 1.20D+03 IAcc=3 IRadAn=         5 AccDes= 0.00D+00
 HarFok:  IExCor=  205 AccDes= 0.00D+00 IRadAn=         5 IDoV=-2 UseB2=F ITyADJ=14
 ICtDFT= 12500011 ScaDFX=  1.000000  1.000000  1.000000  1.000000
 Defaulting to unpruned grid for atomic number  44.
 GSVD:  LWork=       -2100 too small for GESVD, short by        9450 words or        9450 for optimal perf.
 Range of M.O.s used for correlation:    43   684
 NBasis=   684 NAE=   133 NBE=   133 NFC=    42 NFV=     0
 NROrb=    642 NOA=    91 NOB=    91 NVA=   551 NVB=   551
 NEqPCM:  Using non-equilibrium solvation (IEInf=1, Eps=  78.3553, EpsInf=   1.7778)
 Inv3:  Mode=1 IEnd=    65230707.
 Iteration    1 A*A^-1 deviation from unit magnitude is 4.00D-15 for    639.
 Iteration    1 A*A^-1 deviation from orthogonality  is 2.22D-15 for   4548    770.
 Iteration    1 A^-1*A deviation from unit magnitude is 4.00D-15 for   2937.
 Iteration    1 A^-1*A deviation from orthogonality  is 2.44D-15 for   2746    532.
 Orbital symmetries:
       Occupied  (A) (A) (A) (A) (A) (A) (A) (A) (A) (A) (A) (A)
                 (A) (A) (A) (A) (A) (A) (A) (A) (A) (A) (A) (A)
                 (A) (A) (A) (A) (A) (A) (A) (A) (A) (A) (A) (A)
                 (A) (A) (A) (A) (A) (A) (A) (A) (A) (A) (A) (A)
                 (A) (A) (A) (A) (A) (A) (A) (A) (A) (A) (A) (A)
                 (A) (A) (A) (A) (A) (A) (A) (A) (A) (A) (A) (A)
                 (A) (A) (A) (A) (A) (A) (A) (A) (A) (A) (A) (A)
                 (A) (A) (A) (A) (A) (A) (A) (A) (A) (A) (A) (A)
                 (A) (A) (A) (A) (A) (A) (A) (A) (A) (A) (A) (A)
                 (A) (A) (A) (A) (A) (A) (A) (A) (A) (A) (A) (A)
                 (A) (A) (A) (A) (A) (A) (A) (A) (A) (A) (A) (A)
                 (A)
       Virtual   (A) (A) (A) (A) (A) (A) (A) (A) (A) (A) (A) (A)
                 (A) (A) (A) (A) (A) (A) (A) (A) (A) (A) (A) (A)
                 (A) (A) (A) (A) (A) (A) (A) (A) (A) (A) (A) (A)
                 (A) (A) (A) (A) (A) (A) (A) (A) (A) (A) (A) (A)
                 (A) (A) (A) (A) (A) (A) (A) (A) (A) (A) (A) (A)
                 (A) (A) (A) (A) (A) (A) (A) (A) (A) (A) (A) (A)
                 (A) (A) (A) (A) (A) (A) (A) (A) (A) (A) (A) (A)
                 (A) (A) (A) (A) (A) (A) (A) (A) (A) (A) (A) (A)
                 (A) (A) (A) (A) (A) (A) (A) (A) (A) (A) (A) (A)
                 (A) (A) (A) (A) (A) (A) (A) (A) (A) (A) (A) (A)
                 (A) (A) (A) (A) (A) (A) (A) (A) (A) (A) (A) (A)
                 (A) (A) (A) (A) (A) (A) (A) (A) (A) (A) (A) (A)
                 (A) (A) (A) (A) (A) (A) (A) (A) (A) (A) (A) (A)
                 (A) (A) (A) (A) (A) (A) (A) (A) (A) (A) (A) (A)
                 (A) (A) (A) (A) (A) (A) (A) (A) (A) (A) (A) (A)
                 (A) (A) (A) (A) (A) (A) (A) (A) (A) (A) (A) (A)
                 (A) (A) (A) (A) (A) (A) (A) (A) (A) (A) (A) (A)
                 (A) (A) (A) (A) (A) (A) (A) (A) (A) (A) (A) (A)
                 (A) (A) (A) (A) (A) (A) (A) (A) (A) (A) (A) (A)
                 (A) (A) (A) (A) (A) (A) (A) (A) (A) (A) (A) (A)
                 (A) (A) (A) (A) (A) (A) (A) (A) (A) (A) (A) (A)
                 (A) (A) (A) (A) (A) (A) (A) (A) (A) (A) (A) (A)
                 (A) (A) (A) (A) (A) (A) (A) (A) (A) (A) (A) (A)
                 (A) (A) (A) (A) (A) (A) (A) (A) (A) (A) (A) (A)
                 (A) (A) (A) (A) (A) (A) (A) (A) (A) (A) (A) (A)
                 (A) (A) (A) (A) (A) (A) (A) (A) (A) (A) (A) (A)
                 (A) (A) (A) (A) (A) (A) (A) (A) (A) (A) (A) (A)
                 (A) (A) (A) (A) (A) (A) (A) (A) (A) (A) (A) (A)
                 (A) (A) (A) (A) (A) (A) (A) (A) (A) (A) (A) (A)
                 (A) (A) (A) (A) (A) (A) (A) (A) (A) (A) (A) (A)
                 (A) (A) (A) (A) (A) (A) (A) (A) (A) (A) (A) (A)
                 (A) (A) (A) (A) (A) (A) (A) (A) (A) (A) (A) (A)
                 (A) (A) (A) (A) (A) (A) (A) (A) (A) (A) (A) (A)
                 (A) (A) (A) (A) (A) (A) (A) (A) (A) (A) (A) (A)
                 (A) (A) (A) (A) (A) (A) (A) (A) (A) (A) (A) (A)
                 (A) (A) (A) (A) (A) (A) (A) (A) (A) (A) (A) (A)
                 (A) (A) (A) (A) (A) (A) (A) (A) (A) (A) (A) (A)
                 (A) (A) (A) (A) (A) (A) (A) (A) (A) (A) (A) (A)
                 (A) (A) (A) (A) (A) (A) (A) (A) (A) (A) (A) (A)
                 (A) (A) (A) (A) (A) (A) (A) (A) (A) (A) (A) (A)
                 (A) (A) (A) (A) (A) (A) (A) (A) (A) (A) (A) (A)
                 (A) (A) (A) (A) (A) (A) (A) (A) (A) (A) (A) (A)
                 (A) (A) (A) (A) (A) (A) (A) (A) (A) (A) (A) (A)
                 (A) (A) (A) (A) (A) (A) (A) (A) (A) (A) (A) (A)
                 (A) (A) (A) (A) (A) (A) (A) (A) (A) (A) (A) (A)
                 (A) (A) (A) (A) (A) (A) (A) (A) (A) (A) (A)
   200 initial guesses have been made.
 Convergence on wavefunction:    0.001000000000000
 Iteration     1 Dimension   200 NMult     0 NNew    200
 CISAX will form   200 AO SS matrices at one time.
 Defaulting to unpruned grid for atomic number  44.
 Defaulting to unpruned grid for atomic number  44.
 Defaulting to unpruned grid for atomic number  44.
 Defaulting to unpruned grid for atomic number  44.
 Defaulting to unpruned grid for atomic number  44.
 Defaulting to unpruned grid for atomic number  44.
 Defaulting to unpruned grid for atomic number  44.
 Defaulting to unpruned grid for atomic number  44.
 Defaulting to unpruned grid for atomic number  44.
 Defaulting to unpruned grid for atomic number  44.
 Defaulting to unpruned grid for atomic number  44.
 Defaulting to unpruned grid for atomic number  44.
 Defaulting to unpruned grid for atomic number  44.
 Defaulting to unpruned grid for atomic number  44.
 Defaulting to unpruned grid for atomic number  44.
 Defaulting to unpruned grid for atomic number  44.
 Defaulting to unpruned grid for atomic number  44.
 Defaulting to unpruned grid for atomic number  44.
 Defaulting to unpruned grid for atomic number  44.
 Defaulting to unpruned grid for atomic number  44.
 Defaulting to unpruned grid for atomic number  44.
 Defaulting to unpruned grid for atomic number  44.
 Defaulting to unpruned grid for atomic number  44.
 Defaulting to unpruned grid for atomic number  44.
 New state      2 was old state      5
 New state      3 was old state      7
 New state      4 was old state      2
 New state      5 was old state      3
 New state      6 was old state     12
 New state      7 was old state      8
 New state      8 was old state      4
 New state      9 was old state     16
 New state     10 was old state     11
 New state     11 was old state      6
 New state     12 was old state     18
 New state     13 was old state     14
 New state     14 was old state     24
 New state     15 was old state      9
 New state     16 was old state     21
 New state     17 was old state     33
 New state     18 was old state     10
 New state     19 was old state     13
 New state     20 was old state     22
 New state     21 was old state     40
 New state     22 was old state     15
 New state     23 was old state     17
 New state     24 was old state     20
 New state     25 was old state     57
 New state     26 was old state     19
 New state     27 was old state     42
 New state     29 was old state     26
 New state     30 was old state     23
 New state     31 was old state     44
 New state     32 was old state     30
 New state     33 was old state     27
 New state     34 was old state     25
 New state     35 was old state     46
 New state     36 was old state     34
 New state     37 was old state     58
 New state     38 was old state     51
 New state     39 was old state     32
 New state     40 was old state     36
 New state     41 was old state     37
 New state     42 was old state     29
 New state     43 was old state     31
 New state     44 was old state     49
 New state     45 was old state     69
 New state     46 was old state     35
 New state     47 was old state     39
 New state     48 was old state     56
 New state     49 was old state     75
 New state     50 was old state     59
 Iteration     2 Dimension   300 NMult   200 NNew    100
 New state      1 was old state      2
 New state      2 was old state      1
 New state      4 was old state      5
 New state      5 was old state      4
 New state      8 was old state     14
 New state      9 was old state      8
 New state     10 was old state      9
 New state     11 was old state     10
 New state     12 was old state     11
 New state     13 was old state     12
 New state     14 was old state     13
 New state     16 was old state     17
 New state     17 was old state     16
 New state     23 was old state     25
 New state     24 was old state     23
 New state     25 was old state     24
 New state     36 was old state     37
 New state     37 was old state     36
 New state     43 was old state     45
 New state     44 was old state     43
 New state     45 was old state     44
 New state     46 was old state     48
 New state     48 was old state     46
 Iteration     3 Dimension   400 NMult   300 NNew    100
 Iteration     4 Dimension   500 NMult   400 NNew    100
 Iteration     5 Dimension   522 NMult   500 NNew     22
 Iteration     6 Dimension   524 NMult   522 NNew      2
 ***********************************************************************
 Excited states from <AA,BB:AA,BB> singles matrix:
 ***********************************************************************
 
 Ground to excited state transition densities written to RWF  633
 Ground to excited state transition electric dipole moments (Au):
       state          X           Y           Z        Dip. S.      Osc.
         1        -0.0000     -0.0000     -0.0000      0.0000      0.0000
         2        -0.0000     -0.0000     -0.0000      0.0000      0.0000
         3        -0.0000     -0.0000     -0.0000      0.0000      0.0000
         4        -0.0000     -0.0000     -0.0000      0.0000      0.0000
         5        -0.0000     -0.0000     -0.0000      0.0000      0.0000
         6        -0.0000     -0.0000     -0.0000      0.0000      0.0000
         7        -0.0000     -0.0000     -0.0000      0.0000      0.0000
         8        -0.0000     -0.0000     -0.0000      0.0000      0.0000
         9        -0.0000     -0.0000     -0.0000      0.0000      0.0000
        10        -0.0000     -0.0000     -0.0000      0.0000      0.0000
        11        -0.0000     -0.0000     -0.0000      0.0000      0.0000
        12        -0.0000     -0.0000     -0.0000      0.0000      0.0000
        13        -0.0000     -0.0000     -0.0000      0.0000      0.0000
        14        -0.0000     -0.0000     -0.0000      0.0000      0.0000
        15        -0.0000     -0.0000     -0.0000      0.0000      0.0000
        16        -0.0000     -0.0000     -0.0000      0.0000      0.0000
        17        -0.0000     -0.0000     -0.0000      0.0000      0.0000
        18        -0.0000     -0.0000     -0.0000      0.0000      0.0000
        19        -0.0000     -0.0000     -0.0000      0.0000      0.0000
        20        -0.0000     -0.0000     -0.0000      0.0000      0.0000
        21        -0.0000     -0.0000     -0.0000      0.0000      0.0000
        22        -0.0000     -0.0000     -0.0000      0.0000      0.0000
        23        -0.0000     -0.0000     -0.0000      0.0000      0.0000
        24        -0.0000     -0.0000     -0.0000      0.0000      0.0000
        25        -0.0000     -0.0000     -0.0000      0.0000      0.0000
        26        -0.0000     -0.0000     -0.0000      0.0000      0.0000
        27        -0.0000     -0.0000     -0.0000      0.0000      0.0000
        28        -0.0000     -0.0000     -0.0000      0.0000      0.0000
        29        -0.0000     -0.0000     -0.0000      0.0000      0.0000
        30        -0.0000     -0.0000     -0.0000      0.0000      0.0000
        31        -0.0000     -0.0000     -0.0000      0.0000      0.0000
        32        -0.0000     -0.0000     -0.0000      0.0000      0.0000
        33        -0.0000     -0.0000     -0.0000      0.0000      0.0000
        34        -0.0000     -0.0000     -0.0000      0.0000      0.0000
        35        -0.0000     -0.0000     -0.0000      0.0000      0.0000
        36        -0.0000     -0.0000     -0.0000      0.0000      0.0000
        37        -0.0000     -0.0000     -0.0000      0.0000      0.0000
        38        -0.0000     -0.0000     -0.0000      0.0000      0.0000
        39        -0.0000     -0.0000     -0.0000      0.0000      0.0000
        40        -0.0000     -0.0000     -0.0000      0.0000      0.0000
        41        -0.0000     -0.0000     -0.0000      0.0000      0.0000
        42        -0.0000     -0.0000     -0.0000      0.0000      0.0000
        43        -0.0000     -0.0000     -0.0000      0.0000      0.0000
        44        -0.0000     -0.0000     -0.0000      0.0000      0.0000
        45        -0.0000     -0.0000     -0.0000      0.0000      0.0000
        46        -0.0000     -0.0000     -0.0000      0.0000      0.0000
        47        -0.0000     -0.0000     -0.0000      0.0000      0.0000
        48        -0.0000     -0.0000     -0.0000      0.0000      0.0000
        49        -0.0000     -0.0000     -0.0000      0.0000      0.0000
        50        -0.0000     -0.0000     -0.0000      0.0000      0.0000
 Ground to excited state transition velocity dipole moments (Au):
       state          X           Y           Z        Dip. S.      Osc.
         1         0.0000      0.0000      0.0000      0.0000      0.0000
         2         0.0000      0.0000      0.0000      0.0000      0.0000
         3         0.0000      0.0000      0.0000      0.0000      0.0000
         4         0.0000      0.0000      0.0000      0.0000      0.0000
         5         0.0000      0.0000      0.0000      0.0000      0.0000
         6         0.0000      0.0000      0.0000      0.0000      0.0000
         7         0.0000      0.0000      0.0000      0.0000      0.0000
         8         0.0000      0.0000      0.0000      0.0000      0.0000
         9         0.0000      0.0000      0.0000      0.0000      0.0000
        10         0.0000      0.0000      0.0000      0.0000      0.0000
        11         0.0000      0.0000      0.0000      0.0000      0.0000
        12         0.0000      0.0000      0.0000      0.0000      0.0000
        13         0.0000      0.0000      0.0000      0.0000      0.0000
        14         0.0000      0.0000      0.0000      0.0000      0.0000
        15         0.0000      0.0000      0.0000      0.0000      0.0000
        16         0.0000      0.0000      0.0000      0.0000      0.0000
        17         0.0000      0.0000      0.0000      0.0000      0.0000
        18         0.0000      0.0000      0.0000      0.0000      0.0000
        19         0.0000      0.0000      0.0000      0.0000      0.0000
        20         0.0000      0.0000      0.0000      0.0000      0.0000
        21         0.0000      0.0000      0.0000      0.0000      0.0000
        22         0.0000      0.0000      0.0000      0.0000      0.0000
        23         0.0000      0.0000      0.0000      0.0000      0.0000
        24         0.0000      0.0000      0.0000      0.0000      0.0000
        25         0.0000      0.0000      0.0000      0.0000      0.0000
        26         0.0000      0.0000      0.0000      0.0000      0.0000
        27         0.0000      0.0000      0.0000      0.0000      0.0000
        28         0.0000      0.0000      0.0000      0.0000      0.0000
        29         0.0000      0.0000      0.0000      0.0000      0.0000
        30         0.0000      0.0000      0.0000      0.0000      0.0000
        31         0.0000      0.0000      0.0000      0.0000      0.0000
        32         0.0000      0.0000      0.0000      0.0000      0.0000
        33         0.0000      0.0000      0.0000      0.0000      0.0000
        34         0.0000      0.0000      0.0000      0.0000      0.0000
        35         0.0000      0.0000      0.0000      0.0000      0.0000
        36         0.0000      0.0000      0.0000      0.0000      0.0000
        37         0.0000      0.0000      0.0000      0.0000      0.0000
        38         0.0000      0.0000      0.0000      0.0000      0.0000
        39         0.0000      0.0000      0.0000      0.0000      0.0000
        40         0.0000      0.0000      0.0000      0.0000      0.0000
        41         0.0000      0.0000      0.0000      0.0000      0.0000
        42         0.0000      0.0000      0.0000      0.0000      0.0000
        43         0.0000      0.0000      0.0000      0.0000      0.0000
        44         0.0000      0.0000      0.0000      0.0000      0.0000
        45         0.0000      0.0000      0.0000      0.0000      0.0000
        46         0.0000      0.0000      0.0000      0.0000      0.0000
        47         0.0000      0.0000      0.0000      0.0000      0.0000
        48         0.0000      0.0000      0.0000      0.0000      0.0000
        49         0.0000      0.0000      0.0000      0.0000      0.0000
        50         0.0000      0.0000      0.0000      0.0000      0.0000
 Ground to excited state transition magnetic dipole moments (Au):
       state          X           Y           Z
         1         0.0000      0.0000      0.0000
         2         0.0000      0.0000      0.0000
         3         0.0000      0.0000      0.0000
         4         0.0000      0.0000      0.0000
         5         0.0000      0.0000      0.0000
         6         0.0000      0.0000      0.0000
         7         0.0000      0.0000      0.0000
         8         0.0000      0.0000      0.0000
         9         0.0000      0.0000      0.0000
        10         0.0000      0.0000      0.0000
        11         0.0000      0.0000      0.0000
        12         0.0000      0.0000      0.0000
        13         0.0000      0.0000      0.0000
        14         0.0000      0.0000      0.0000
        15         0.0000      0.0000      0.0000
        16         0.0000      0.0000      0.0000
        17         0.0000      0.0000      0.0000
        18         0.0000      0.0000      0.0000
        19         0.0000      0.0000      0.0000
        20         0.0000      0.0000      0.0000
        21         0.0000      0.0000      0.0000
        22         0.0000      0.0000      0.0000
        23         0.0000      0.0000      0.0000
        24         0.0000      0.0000      0.0000
        25         0.0000      0.0000      0.0000
        26         0.0000      0.0000      0.0000
        27         0.0000      0.0000      0.0000
        28         0.0000      0.0000      0.0000
        29         0.0000      0.0000      0.0000
        30         0.0000      0.0000      0.0000
        31         0.0000      0.0000      0.0000
        32         0.0000      0.0000      0.0000
        33         0.0000      0.0000      0.0000
        34         0.0000      0.0000      0.0000
        35         0.0000      0.0000      0.0000
        36         0.0000      0.0000      0.0000
        37         0.0000      0.0000      0.0000
        38         0.0000      0.0000      0.0000
        39         0.0000      0.0000      0.0000
        40         0.0000      0.0000      0.0000
        41         0.0000      0.0000      0.0000
        42         0.0000      0.0000      0.0000
        43         0.0000      0.0000      0.0000
        44         0.0000      0.0000      0.0000
        45         0.0000      0.0000      0.0000
        46         0.0000      0.0000      0.0000
        47         0.0000      0.0000      0.0000
        48         0.0000      0.0000      0.0000
        49         0.0000      0.0000      0.0000
        50         0.0000      0.0000      0.0000
 Ground to excited state transition velocity quadrupole moments (Au):
       state          XX          YY          ZZ          XY          XZ          YZ
         1         0.0000      0.0000      0.0000      0.0000      0.0000      0.0000
         2         0.0000      0.0000      0.0000      0.0000      0.0000      0.0000
         3         0.0000      0.0000      0.0000      0.0000      0.0000      0.0000
         4         0.0000      0.0000      0.0000      0.0000      0.0000      0.0000
         5         0.0000      0.0000      0.0000      0.0000      0.0000      0.0000
         6         0.0000      0.0000      0.0000      0.0000      0.0000      0.0000
         7         0.0000      0.0000      0.0000      0.0000      0.0000      0.0000
         8         0.0000      0.0000      0.0000      0.0000      0.0000      0.0000
         9         0.0000      0.0000      0.0000      0.0000      0.0000      0.0000
        10         0.0000      0.0000      0.0000      0.0000      0.0000      0.0000
        11         0.0000      0.0000      0.0000      0.0000      0.0000      0.0000
        12         0.0000      0.0000      0.0000      0.0000      0.0000      0.0000
        13         0.0000      0.0000      0.0000      0.0000      0.0000      0.0000
        14         0.0000      0.0000      0.0000      0.0000      0.0000      0.0000
        15         0.0000      0.0000      0.0000      0.0000      0.0000      0.0000
        16         0.0000      0.0000      0.0000      0.0000      0.0000      0.0000
        17         0.0000      0.0000      0.0000      0.0000      0.0000      0.0000
        18         0.0000      0.0000      0.0000      0.0000      0.0000      0.0000
        19         0.0000      0.0000      0.0000      0.0000      0.0000      0.0000
        20         0.0000      0.0000      0.0000      0.0000      0.0000      0.0000
        21         0.0000      0.0000      0.0000      0.0000      0.0000      0.0000
        22         0.0000      0.0000      0.0000      0.0000      0.0000      0.0000
        23         0.0000      0.0000      0.0000      0.0000      0.0000      0.0000
        24         0.0000      0.0000      0.0000      0.0000      0.0000      0.0000
        25         0.0000      0.0000      0.0000      0.0000      0.0000      0.0000
        26         0.0000      0.0000      0.0000      0.0000      0.0000      0.0000
        27         0.0000      0.0000      0.0000      0.0000      0.0000      0.0000
        28         0.0000      0.0000      0.0000      0.0000      0.0000      0.0000
        29         0.0000      0.0000      0.0000      0.0000      0.0000      0.0000
        30         0.0000      0.0000      0.0000      0.0000      0.0000      0.0000
        31         0.0000      0.0000      0.0000      0.0000      0.0000      0.0000
        32         0.0000      0.0000      0.0000      0.0000      0.0000      0.0000
        33         0.0000      0.0000      0.0000      0.0000      0.0000      0.0000
        34         0.0000      0.0000      0.0000      0.0000      0.0000      0.0000
        35         0.0000      0.0000      0.0000      0.0000      0.0000      0.0000
        36         0.0000      0.0000      0.0000      0.0000      0.0000      0.0000
        37         0.0000      0.0000      0.0000      0.0000      0.0000      0.0000
        38         0.0000      0.0000      0.0000      0.0000      0.0000      0.0000
        39         0.0000      0.0000      0.0000      0.0000      0.0000      0.0000
        40         0.0000      0.0000      0.0000      0.0000      0.0000      0.0000
        41         0.0000      0.0000      0.0000      0.0000      0.0000      0.0000
        42         0.0000      0.0000      0.0000      0.0000      0.0000      0.0000
        43         0.0000      0.0000      0.0000      0.0000      0.0000      0.0000
        44         0.0000      0.0000      0.0000      0.0000      0.0000      0.0000
        45         0.0000      0.0000      0.0000      0.0000      0.0000      0.0000
        46         0.0000      0.0000      0.0000      0.0000      0.0000      0.0000
        47         0.0000      0.0000      0.0000      0.0000      0.0000      0.0000
        48         0.0000      0.0000      0.0000      0.0000      0.0000      0.0000
        49         0.0000      0.0000      0.0000      0.0000      0.0000      0.0000
        50         0.0000      0.0000      0.0000      0.0000      0.0000      0.0000
 <0|del|b> * <b|rxdel|0> + <0|del|b> * <b|delr+rdel|0>
 Rotatory Strengths (R) in cgs (10**-40 erg-esu-cm/Gauss)
       state          XX          YY          ZZ    R(velocity)    E-M Angle
         1         0.0000      0.0000      0.0000      0.0000       90.00
         2         0.0000      0.0000      0.0000      0.0000       90.00
         3         0.0000      0.0000      0.0000      0.0000       90.00
         4         0.0000      0.0000      0.0000      0.0000       90.00
         5         0.0000      0.0000      0.0000      0.0000       90.00
         6         0.0000      0.0000      0.0000      0.0000       90.00
         7         0.0000      0.0000      0.0000      0.0000       90.00
         8         0.0000      0.0000      0.0000      0.0000       90.00
         9         0.0000      0.0000      0.0000      0.0000       90.00
        10         0.0000      0.0000      0.0000      0.0000       90.00
        11         0.0000      0.0000      0.0000      0.0000       90.00
        12         0.0000      0.0000      0.0000      0.0000       90.00
        13         0.0000      0.0000      0.0000      0.0000       90.00
        14         0.0000      0.0000      0.0000      0.0000       90.00
        15         0.0000      0.0000      0.0000      0.0000       90.00
        16         0.0000      0.0000      0.0000      0.0000       90.00
        17         0.0000      0.0000      0.0000      0.0000       90.00
        18         0.0000      0.0000      0.0000      0.0000       90.00
        19         0.0000      0.0000      0.0000      0.0000       90.00
        20         0.0000      0.0000      0.0000      0.0000       90.00
        21         0.0000      0.0000      0.0000      0.0000       90.00
        22         0.0000      0.0000      0.0000      0.0000       90.00
        23         0.0000      0.0000      0.0000      0.0000       90.00
        24         0.0000      0.0000      0.0000      0.0000       90.00
        25         0.0000      0.0000      0.0000      0.0000       90.00
        26         0.0000      0.0000      0.0000      0.0000       90.00
        27         0.0000      0.0000      0.0000      0.0000       90.00
        28         0.0000      0.0000      0.0000      0.0000       90.00
        29         0.0000      0.0000      0.0000      0.0000       90.00
        30         0.0000      0.0000      0.0000      0.0000       90.00
        31         0.0000      0.0000      0.0000      0.0000       90.00
        32         0.0000      0.0000      0.0000      0.0000       90.00
        33         0.0000      0.0000      0.0000      0.0000       90.00
        34         0.0000      0.0000      0.0000      0.0000       90.00
        35         0.0000      0.0000      0.0000      0.0000       90.00
        36         0.0000      0.0000      0.0000      0.0000       90.00
        37         0.0000      0.0000      0.0000      0.0000       90.00
        38         0.0000      0.0000      0.0000      0.0000       90.00
        39         0.0000      0.0000      0.0000      0.0000       90.00
        40         0.0000      0.0000      0.0000      0.0000       90.00
        41         0.0000      0.0000      0.0000      0.0000       90.00
        42         0.0000      0.0000      0.0000      0.0000       90.00
        43         0.0000      0.0000      0.0000      0.0000       90.00
        44         0.0000      0.0000      0.0000      0.0000       90.00
        45         0.0000      0.0000      0.0000      0.0000       90.00
        46         0.0000      0.0000      0.0000      0.0000       90.00
        47         0.0000      0.0000      0.0000      0.0000       90.00
        48         0.0000      0.0000      0.0000      0.0000       90.00
        49         0.0000      0.0000      0.0000      0.0000       90.00
        50         0.0000      0.0000      0.0000      0.0000       90.00
 1/2[<0|r|b>*<b|rxdel|0> + (<0|rxdel|b>*<b|r|0>)*]
 Rotatory Strengths (R) in cgs (10**-40 erg-esu-cm/Gauss)
       state          XX          YY          ZZ     R(length)
         1         0.0000      0.0000      0.0000      0.0000
         2         0.0000      0.0000      0.0000      0.0000
         3         0.0000      0.0000      0.0000      0.0000
         4         0.0000      0.0000      0.0000      0.0000
         5         0.0000      0.0000      0.0000      0.0000
         6         0.0000      0.0000      0.0000      0.0000
         7         0.0000      0.0000      0.0000      0.0000
         8         0.0000      0.0000      0.0000      0.0000
         9         0.0000      0.0000      0.0000      0.0000
        10         0.0000      0.0000      0.0000      0.0000
        11         0.0000      0.0000      0.0000      0.0000
        12         0.0000      0.0000      0.0000      0.0000
        13         0.0000      0.0000      0.0000      0.0000
        14         0.0000      0.0000      0.0000      0.0000
        15         0.0000      0.0000      0.0000      0.0000
        16         0.0000      0.0000      0.0000      0.0000
        17         0.0000      0.0000      0.0000      0.0000
        18         0.0000      0.0000      0.0000      0.0000
        19         0.0000      0.0000      0.0000      0.0000
        20         0.0000      0.0000      0.0000      0.0000
        21         0.0000      0.0000      0.0000      0.0000
        22         0.0000      0.0000      0.0000      0.0000
        23         0.0000      0.0000      0.0000      0.0000
        24         0.0000      0.0000      0.0000      0.0000
        25         0.0000      0.0000      0.0000      0.0000
        26         0.0000      0.0000      0.0000      0.0000
        27         0.0000      0.0000      0.0000      0.0000
        28         0.0000      0.0000      0.0000      0.0000
        29         0.0000      0.0000      0.0000      0.0000
        30         0.0000      0.0000      0.0000      0.0000
        31         0.0000      0.0000      0.0000      0.0000
        32         0.0000      0.0000      0.0000      0.0000
        33         0.0000      0.0000      0.0000      0.0000
        34         0.0000      0.0000      0.0000      0.0000
        35         0.0000      0.0000      0.0000      0.0000
        36         0.0000      0.0000      0.0000      0.0000
        37         0.0000      0.0000      0.0000      0.0000
        38         0.0000      0.0000      0.0000      0.0000
        39         0.0000      0.0000      0.0000      0.0000
        40         0.0000      0.0000      0.0000      0.0000
        41         0.0000      0.0000      0.0000      0.0000
        42         0.0000      0.0000      0.0000      0.0000
        43         0.0000      0.0000      0.0000      0.0000
        44         0.0000      0.0000      0.0000      0.0000
        45         0.0000      0.0000      0.0000      0.0000
        46         0.0000      0.0000      0.0000      0.0000
        47         0.0000      0.0000      0.0000      0.0000
        48         0.0000      0.0000      0.0000      0.0000
        49         0.0000      0.0000      0.0000      0.0000
        50         0.0000      0.0000      0.0000      0.0000
  1/2[<0|del|b>*<b|r|0> + (<0|r|b>*<b|del|0>)*] (Au)
       state          X           Y           Z        Dip. S.   Osc.(frdel)
         1        -0.0000     -0.0000     -0.0000      0.0000      0.0000
         2        -0.0000     -0.0000     -0.0000      0.0000      0.0000
         3        -0.0000     -0.0000     -0.0000      0.0000      0.0000
         4        -0.0000     -0.0000     -0.0000      0.0000      0.0000
         5        -0.0000     -0.0000     -0.0000      0.0000      0.0000
         6        -0.0000     -0.0000     -0.0000      0.0000      0.0000
         7        -0.0000     -0.0000     -0.0000      0.0000      0.0000
         8        -0.0000     -0.0000     -0.0000      0.0000      0.0000
         9        -0.0000     -0.0000     -0.0000      0.0000      0.0000
        10        -0.0000     -0.0000     -0.0000      0.0000      0.0000
        11        -0.0000     -0.0000     -0.0000      0.0000      0.0000
        12        -0.0000     -0.0000     -0.0000      0.0000      0.0000
        13        -0.0000     -0.0000     -0.0000      0.0000      0.0000
        14        -0.0000     -0.0000     -0.0000      0.0000      0.0000
        15        -0.0000     -0.0000     -0.0000      0.0000      0.0000
        16        -0.0000     -0.0000     -0.0000      0.0000      0.0000
        17        -0.0000     -0.0000     -0.0000      0.0000      0.0000
        18        -0.0000     -0.0000     -0.0000      0.0000      0.0000
        19        -0.0000     -0.0000     -0.0000      0.0000      0.0000
        20        -0.0000     -0.0000     -0.0000      0.0000      0.0000
        21        -0.0000     -0.0000     -0.0000      0.0000      0.0000
        22        -0.0000     -0.0000     -0.0000      0.0000      0.0000
        23        -0.0000     -0.0000     -0.0000      0.0000      0.0000
        24        -0.0000     -0.0000     -0.0000      0.0000      0.0000
        25        -0.0000     -0.0000     -0.0000      0.0000      0.0000
        26        -0.0000     -0.0000     -0.0000      0.0000      0.0000
        27        -0.0000     -0.0000     -0.0000      0.0000      0.0000
        28        -0.0000     -0.0000     -0.0000      0.0000      0.0000
        29        -0.0000     -0.0000     -0.0000      0.0000      0.0000
        30        -0.0000     -0.0000     -0.0000      0.0000      0.0000
        31        -0.0000     -0.0000     -0.0000      0.0000      0.0000
        32        -0.0000     -0.0000     -0.0000      0.0000      0.0000
        33        -0.0000     -0.0000     -0.0000      0.0000      0.0000
        34        -0.0000     -0.0000     -0.0000      0.0000      0.0000
        35        -0.0000     -0.0000     -0.0000      0.0000      0.0000
        36        -0.0000     -0.0000     -0.0000      0.0000      0.0000
        37        -0.0000     -0.0000     -0.0000      0.0000      0.0000
        38        -0.0000     -0.0000     -0.0000      0.0000      0.0000
        39        -0.0000     -0.0000     -0.0000      0.0000      0.0000
        40        -0.0000     -0.0000     -0.0000      0.0000      0.0000
        41        -0.0000     -0.0000     -0.0000      0.0000      0.0000
        42        -0.0000     -0.0000     -0.0000      0.0000      0.0000
        43        -0.0000     -0.0000     -0.0000      0.0000      0.0000
        44        -0.0000     -0.0000     -0.0000      0.0000      0.0000
        45        -0.0000     -0.0000     -0.0000      0.0000      0.0000
        46        -0.0000     -0.0000     -0.0000      0.0000      0.0000
        47        -0.0000     -0.0000     -0.0000      0.0000      0.0000
        48        -0.0000     -0.0000     -0.0000      0.0000      0.0000
        49        -0.0000     -0.0000     -0.0000      0.0000      0.0000
        50        -0.0000     -0.0000     -0.0000      0.0000      0.0000

 Excitation energies and oscillator strengths:
 
 Excited State   1:      Triplet-A      2.6331 eV  470.87 nm  f=0.0000  <S**2>=2.000
     133 ->134         0.36134
     133 ->136         0.56029
     133 ->142         0.11108
 This state for optimization and/or second-order correction.
 Total Energy, E(TD-HF/TD-DFT) =  -1998.90182730    
 Copying the excited state density for this state as the 1-particle RhoCI density.
 
 Excited State   2:      Triplet-A      2.6678 eV  464.75 nm  f=0.0000  <S**2>=2.000
     133 ->134         0.60096
     133 ->136        -0.33711
 
 Excited State   3:      Triplet-A      3.1725 eV  390.81 nm  f=0.0000  <S**2>=2.000
     132 ->134         0.10235
     133 ->135         0.25716
     133 ->137         0.56578
     133 ->138         0.21051
     133 ->142         0.12945
 
 Excited State   4:      Triplet-A      3.2736 eV  378.74 nm  f=0.0000  <S**2>=2.000
     128 ->135         0.11850
     132 ->134         0.42574
     133 ->135         0.44041
     133 ->137        -0.19021
     133 ->138        -0.17089
 
 Excited State   5:      Triplet-A      3.2981 eV  375.93 nm  f=0.0000  <S**2>=2.000
     132 ->134         0.47820
     132 ->138         0.10542
     133 ->135        -0.47354
     133 ->137         0.11391
 
 Excited State   6:      Triplet-A      3.5409 eV  350.15 nm  f=0.0000  <S**2>=2.000
     131 ->136         0.12194
     132 ->136         0.60393
     132 ->137         0.19666
     132 ->142         0.13748
     133 ->136        -0.12017
     133 ->138         0.11288
 
 Excited State   7:      Triplet-A      3.5763 eV  346.68 nm  f=0.0000  <S**2>=2.000
     132 ->134         0.15936
     132 ->136        -0.12071
     132 ->137         0.11186
     132 ->138        -0.16480
     133 ->137        -0.23030
     133 ->138         0.55919
 
 Excited State   8:      Triplet-A      3.8133 eV  325.14 nm  f=0.0000  <S**2>=2.000
     122 ->134         0.20526
     128 ->135         0.49084
     129 ->134        -0.14274
     129 ->135         0.17377
     132 ->134        -0.16509
     132 ->137         0.12084
     133 ->138        -0.12515
 
 Excited State   9:      Triplet-A      3.8750 eV  319.96 nm  f=0.0000  <S**2>=2.000
     128 ->135        -0.10045
     131 ->137         0.12286
     132 ->135         0.20219
     132 ->136        -0.16201
     132 ->137         0.53730
     132 ->138         0.22740
     132 ->142         0.11251
 
 Excited State  10:      Triplet-A      3.9796 eV  311.55 nm  f=0.0000  <S**2>=2.000
     128 ->134         0.27332
     129 ->134         0.11745
     131 ->134         0.14706
     132 ->135         0.52013
     132 ->136         0.12521
     132 ->137        -0.20740
     132 ->138         0.13876
     133 ->138         0.10904
 
 Excited State  11:      Triplet-A      3.9942 eV  310.41 nm  f=0.0000  <S**2>=2.000
     132 ->138         0.14221
     133 ->139         0.65351
 
 Excited State  12:      Triplet-A      4.0217 eV  308.29 nm  f=0.0000  <S**2>=2.000
     128 ->134        -0.22040
     129 ->134        -0.10535
     131 ->134         0.21514
     131 ->138         0.12006
     132 ->134        -0.12514
     132 ->135        -0.16210
     132 ->138         0.47682
     133 ->138         0.17625
     133 ->139        -0.15195
 
 Excited State  13:      Triplet-A      4.0660 eV  304.93 nm  f=0.0000  <S**2>=2.000
     128 ->134         0.42431
     129 ->134         0.14164
     131 ->134         0.39385
     132 ->135        -0.33425
 
 Excited State  14:      Triplet-A      4.1357 eV  299.79 nm  f=0.0000  <S**2>=2.000
     128 ->134        -0.31835
     128 ->135        -0.11631
     129 ->134        -0.11641
     131 ->134         0.50562
     132 ->135         0.16955
     132 ->138        -0.23153
 
 Excited State  15:      Triplet-A      4.4069 eV  281.34 nm  f=0.0000  <S**2>=2.000
     128 ->135        -0.12249
     130 ->134         0.61028
     130 ->138         0.11740
     132 ->139         0.23588
 
 Excited State  16:      Triplet-A      4.5068 eV  275.10 nm  f=0.0000  <S**2>=2.000
     130 ->136         0.53882
     131 ->135        -0.12692
     131 ->136         0.36683
 
 Excited State  17:      Triplet-A      4.5126 eV  274.75 nm  f=0.0000  <S**2>=2.000
     128 ->135         0.10897
     130 ->134        -0.23878
     131 ->139         0.11090
     132 ->139         0.59385
 
 Excited State  18:      Triplet-A      4.6203 eV  268.35 nm  f=0.0000  <S**2>=2.000
     119 ->134        -0.10925
     122 ->134        -0.24854
     126 ->134         0.13298
     127 ->134         0.20891
     128 ->134        -0.14000
     128 ->135         0.25779
     129 ->134         0.38838
     130 ->134         0.18603
     131 ->135         0.18135
     132 ->139        -0.10432
 
 Excited State  19:      Triplet-A      4.6783 eV  265.02 nm  f=0.0000  <S**2>=2.000
     128 ->135        -0.11559
     129 ->134        -0.10250
     130 ->136         0.19931
     131 ->135         0.63245
 
 Excited State  20:      Triplet-A      4.8228 eV  257.08 nm  f=0.0000  <S**2>=2.000
     130 ->136        -0.31588
     131 ->135         0.19412
     131 ->136         0.54716
     132 ->136        -0.13882
 
 Excited State  21:      Triplet-A      4.8526 eV  255.50 nm  f=0.0000  <S**2>=2.000
     130 ->136         0.10483
     130 ->137         0.54577
     130 ->138         0.21244
     130 ->142         0.14409
     131 ->137         0.25893
 
 Excited State  22:      Triplet-A      4.9941 eV  248.26 nm  f=0.0000  <S**2>=2.000
     127 ->134         0.55612
     128 ->134         0.11952
     129 ->134        -0.38702
 
 Excited State  23:      Triplet-A      5.0275 eV  246.61 nm  f=0.0000  <S**2>=2.000
     130 ->139         0.56371
     131 ->139         0.35576
 
 Excited State  24:      Triplet-A      5.0733 eV  244.39 nm  f=0.0000  <S**2>=2.000
     130 ->135         0.66089
     130 ->136         0.11316
 
 Excited State  25:      Triplet-A      5.0880 eV  243.68 nm  f=0.0000  <S**2>=2.000
     120 ->134         0.12221
     122 ->134        -0.20158
     123 ->134        -0.17874
     124 ->134         0.10594
     126 ->134         0.23249
     127 ->134        -0.23784
     128 ->134         0.12515
     129 ->134        -0.19465
     130 ->135        -0.10505
     133 ->140         0.34594
     133 ->142        -0.20272
 
 Excited State  26:      Triplet-A      5.1031 eV  242.96 nm  f=0.0000  <S**2>=2.000
     120 ->134        -0.10932
     122 ->134         0.15901
     123 ->134         0.15164
     126 ->134        -0.17564
     127 ->134         0.20731
     129 ->134         0.15319
     133 ->137         0.10675
     133 ->140         0.42835
     133 ->142        -0.28241
 
 Excited State  27:      Triplet-A      5.1811 eV  239.30 nm  f=0.0000  <S**2>=2.000
     130 ->137        -0.10696
     130 ->138         0.43665
     131 ->137        -0.25749
     131 ->138         0.38137
     132 ->139        -0.15165
 
 Excited State  28:      Triplet-A      5.2308 eV  237.03 nm  f=0.0000  <S**2>=2.000
     129 ->136        -0.16086
     130 ->137        -0.25963
     131 ->137         0.41866
     131 ->138         0.30206
     132 ->137        -0.13298
     133 ->141         0.16325
 
 Excited State  29:      Triplet-A      5.3269 eV  232.75 nm  f=0.0000  <S**2>=2.000
     131 ->137        -0.15936
     133 ->140        -0.10467
     133 ->141         0.60943
     133 ->144         0.10040
     133 ->145         0.11637
 
 Excited State  30:      Triplet-A      5.3643 eV  231.13 nm  f=0.0000  <S**2>=2.000
     122 ->135        -0.15896
     126 ->134         0.18288
     127 ->135         0.24374
     128 ->135        -0.19716
     129 ->135         0.50801
     130 ->135         0.12916
     131 ->137        -0.11471
 
 Excited State  31:      Triplet-A      5.3749 eV  230.67 nm  f=0.0000  <S**2>=2.000
     120 ->134        -0.13706
     122 ->134         0.12989
     123 ->134         0.20752
     126 ->134         0.46169
     127 ->136        -0.10790
     129 ->135        -0.21929
     129 ->136         0.16559
     130 ->138        -0.10401
     131 ->138         0.10821
     133 ->141        -0.11667
 
 Excited State  32:      Triplet-A      5.4374 eV  228.02 nm  f=0.0000  <S**2>=2.000
     122 ->134        -0.13168
     126 ->134        -0.27430
     127 ->136        -0.24080
     127 ->137        -0.10045
     129 ->136         0.31459
     129 ->137         0.15217
     130 ->138        -0.21277
     131 ->138         0.18237
     133 ->140         0.11677
     133 ->142         0.14774
 
 Excited State  33:      Triplet-A      5.4500 eV  227.49 nm  f=0.0000  <S**2>=2.000
     127 ->136         0.30979
     127 ->137         0.18917
     129 ->136        -0.19118
     130 ->137         0.14131
     130 ->138        -0.28551
     131 ->137        -0.15380
     131 ->138         0.23398
     133 ->141         0.10983
     133 ->142         0.17524
 
 Excited State  34:      Triplet-A      5.5567 eV  223.12 nm  f=0.0000  <S**2>=2.000
     130 ->138         0.20187
     131 ->138        -0.23933
     133 ->140         0.35619
     133 ->142         0.43316
 
 Excited State  35:      Triplet-A      5.6086 eV  221.06 nm  f=0.0000  <S**2>=2.000
     127 ->135         0.61834
     129 ->135        -0.29100
 
 Excited State  36:      Triplet-A      5.6378 eV  219.91 nm  f=0.0000  <S**2>=2.000
     116 ->134         0.13352
     119 ->134         0.13358
     120 ->134         0.40966
     122 ->134         0.26920
     123 ->134        -0.25679
     127 ->134         0.10074
     127 ->136        -0.11420
     129 ->134         0.11582
     131 ->137        -0.12582
     133 ->144         0.12454
 
 Excited State  37:      Triplet-A      5.6683 eV  218.73 nm  f=0.0000  <S**2>=2.000
     120 ->134        -0.13764
     122 ->134        -0.10739
     127 ->136        -0.12362
     133 ->141        -0.14737
     133 ->144         0.51813
     133 ->145         0.23147
 
 Excited State  38:      Triplet-A      5.7201 eV  216.75 nm  f=0.0000  <S**2>=2.000
     127 ->136         0.36192
     127 ->137         0.14771
     128 ->136        -0.12055
     129 ->136         0.33921
     131 ->137         0.16907
     133 ->144         0.23293
 
 Excited State  39:      Triplet-A      5.7969 eV  213.88 nm  f=0.0000  <S**2>=2.000
     122 ->135        -0.20587
     123 ->135        -0.14003
     124 ->135         0.12403
     126 ->135         0.53310
     126 ->136        -0.13262
     127 ->135        -0.11079
     128 ->135         0.13048
     129 ->135        -0.10482
     131 ->139        -0.12866
 
 Excited State  40:      Triplet-A      5.8262 eV  212.81 nm  f=0.0000  <S**2>=2.000
     126 ->135         0.16467
     130 ->139        -0.29731
     131 ->139         0.49678
     132 ->139        -0.11272
     132 ->140         0.16475
     132 ->142        -0.10809
     133 ->144        -0.14597
 
 Excited State  41:      Triplet-A      5.8388 eV  212.35 nm  f=0.0000  <S**2>=2.000
     130 ->139         0.13602
     131 ->139        -0.20817
     132 ->136         0.10087
     132 ->140         0.50030
     132 ->142        -0.30990
 
 Excited State  42:      Triplet-A      5.8963 eV  210.28 nm  f=0.0000  <S**2>=2.000
     133 ->142        -0.12793
     133 ->143         0.65859
     133 ->145        -0.13752
 
 Excited State  43:      Triplet-A      5.9419 eV  208.66 nm  f=0.0000  <S**2>=2.000
     126 ->136         0.45987
     127 ->136        -0.14746
     127 ->137         0.13884
     128 ->136         0.16836
     131 ->138        -0.14876
     132 ->140        -0.13204
     132 ->141         0.11071
     133 ->145        -0.11625
 
 Excited State  44:      Triplet-A      5.9649 eV  207.86 nm  f=0.0000  <S**2>=2.000
     125 ->134         0.63575
     132 ->141         0.12319
 
 Excited State  45:      Triplet-A      5.9858 eV  207.13 nm  f=0.0000  <S**2>=2.000
     125 ->134        -0.24229
     126 ->136        -0.22238
     127 ->136        -0.11425
     127 ->137         0.13245
     132 ->141         0.36709
     132 ->142        -0.11668
     132 ->145         0.10277
     133 ->144         0.15585
     133 ->145        -0.21871
 
 Excited State  46:      Triplet-A      6.0457 eV  205.08 nm  f=0.0000  <S**2>=2.000
     119 ->135        -0.11064
     120 ->135         0.10994
     122 ->135        -0.25656
     123 ->135        -0.21139
     124 ->135         0.11516
     126 ->135        -0.24628
     126 ->136        -0.12441
     129 ->138         0.10035
     133 ->146        -0.20686
     133 ->148        -0.23637
     133 ->149         0.13247
     133 ->150         0.27696
 
 Excited State  47:      Triplet-A      6.0547 eV  204.77 nm  f=0.0000  <S**2>=2.000
     122 ->135         0.16720
     123 ->135         0.12937
     123 ->136         0.10610
     124 ->134         0.19893
     125 ->134        -0.10087
     126 ->135         0.22475
     127 ->137         0.12318
     129 ->138         0.15198
     133 ->144        -0.15456
     133 ->145         0.28846
     133 ->146        -0.12103
     133 ->148        -0.17586
     133 ->150         0.17218
 
 Excited State  48:      Triplet-A      6.0727 eV  204.17 nm  f=0.0000  <S**2>=2.000
     122 ->135        -0.13251
     123 ->135        -0.12042
     126 ->135        -0.15403
     127 ->138        -0.15119
     129 ->137        -0.20695
     129 ->138         0.11096
     132 ->141         0.25530
     133 ->144        -0.15211
     133 ->145         0.29689
     133 ->146         0.14480
     133 ->148         0.16294
     133 ->150        -0.17645
 
 Excited State  49:      Triplet-A      6.0767 eV  204.03 nm  f=0.0000  <S**2>=2.000
     122 ->134         0.13085
     123 ->134         0.16758
     124 ->134         0.61767
     133 ->145        -0.12333
 
 Excited State  50:      Triplet-A      6.1138 eV  202.79 nm  f=0.0000  <S**2>=2.000
     127 ->137        -0.25374
     128 ->137         0.11113
     129 ->136         0.10751
     129 ->137        -0.30348
     129 ->138        -0.22691
     132 ->141         0.31317
     133 ->146        -0.19858
     133 ->148        -0.10505
     133 ->150         0.11547
 SavETr:  write IOETrn=   770 NScale= 10 NData=  16 NLR=1 NState=   50 LETran=     910.

 **********************************************************************

            Population analysis using the SCF Density.

 **********************************************************************

 Orbital symmetries:
       Occupied  (A) (A) (A) (A) (A) (A) (A) (A) (A) (A) (A) (A)
                 (A) (A) (A) (A) (A) (A) (A) (A) (A) (A) (A) (A)
                 (A) (A) (A) (A) (A) (A) (A) (A) (A) (A) (A) (A)
                 (A) (A) (A) (A) (A) (A) (A) (A) (A) (A) (A) (A)
                 (A) (A) (A) (A) (A) (A) (A) (A) (A) (A) (A) (A)
                 (A) (A) (A) (A) (A) (A) (A) (A) (A) (A) (A) (A)
                 (A) (A) (A) (A) (A) (A) (A) (A) (A) (A) (A) (A)
                 (A) (A) (A) (A) (A) (A) (A) (A) (A) (A) (A) (A)
                 (A) (A) (A) (A) (A) (A) (A) (A) (A) (A) (A) (A)
                 (A) (A) (A) (A) (A) (A) (A) (A) (A) (A) (A) (A)
                 (A) (A) (A) (A) (A) (A) (A) (A) (A) (A) (A) (A)
                 (A)
       Virtual   (A) (A) (A) (A) (A) (A) (A) (A) (A) (A) (A) (A)
                 (A) (A) (A) (A) (A) (A) (A) (A) (A) (A) (A) (A)
                 (A) (A) (A) (A) (A) (A) (A) (A) (A) (A) (A) (A)
                 (A) (A) (A) (A) (A) (A) (A) (A) (A) (A) (A) (A)
                 (A) (A) (A) (A) (A) (A) (A) (A) (A) (A) (A) (A)
                 (A) (A) (A) (A) (A) (A) (A) (A) (A) (A) (A) (A)
                 (A) (A) (A) (A) (A) (A) (A) (A) (A) (A) (A) (A)
                 (A) (A) (A) (A) (A) (A) (A) (A) (A) (A) (A) (A)
                 (A) (A) (A) (A) (A) (A) (A) (A) (A) (A) (A) (A)
                 (A) (A) (A) (A) (A) (A) (A) (A) (A) (A) (A) (A)
                 (A) (A) (A) (A) (A) (A) (A) (A) (A) (A) (A) (A)
                 (A) (A) (A) (A) (A) (A) (A) (A) (A) (A) (A) (A)
                 (A) (A) (A) (A) (A) (A) (A) (A) (A) (A) (A) (A)
                 (A) (A) (A) (A) (A) (A) (A) (A) (A) (A) (A) (A)
                 (A) (A) (A) (A) (A) (A) (A) (A) (A) (A) (A) (A)
                 (A) (A) (A) (A) (A) (A) (A) (A) (A) (A) (A) (A)
                 (A) (A) (A) (A) (A) (A) (A) (A) (A) (A) (A) (A)
                 (A) (A) (A) (A) (A) (A) (A) (A) (A) (A) (A) (A)
                 (A) (A) (A) (A) (A) (A) (A) (A) (A) (A) (A) (A)
                 (A) (A) (A) (A) (A) (A) (A) (A) (A) (A) (A) (A)
                 (A) (A) (A) (A) (A) (A) (A) (A) (A) (A) (A) (A)
                 (A) (A) (A) (A) (A) (A) (A) (A) (A) (A) (A) (A)
                 (A) (A) (A) (A) (A) (A) (A) (A) (A) (A) (A) (A)
                 (A) (A) (A) (A) (A) (A) (A) (A) (A) (A) (A) (A)
                 (A) (A) (A) (A) (A) (A) (A) (A) (A) (A) (A) (A)
                 (A) (A) (A) (A) (A) (A) (A) (A) (A) (A) (A) (A)
                 (A) (A) (A) (A) (A) (A) (A) (A) (A) (A) (A) (A)
                 (A) (A) (A) (A) (A) (A) (A) (A) (A) (A) (A) (A)
                 (A) (A) (A) (A) (A) (A) (A) (A) (A) (A) (A) (A)
                 (A) (A) (A) (A) (A) (A) (A) (A) (A) (A) (A) (A)
                 (A) (A) (A) (A) (A) (A) (A) (A) (A) (A) (A) (A)
                 (A) (A) (A) (A) (A) (A) (A) (A) (A) (A) (A) (A)
                 (A) (A) (A) (A) (A) (A) (A) (A) (A) (A) (A) (A)
                 (A) (A) (A) (A) (A) (A) (A) (A) (A) (A) (A) (A)
                 (A) (A) (A) (A) (A) (A) (A) (A) (A) (A) (A) (A)
                 (A) (A) (A) (A) (A) (A) (A) (A) (A) (A) (A) (A)
                 (A) (A) (A) (A) (A) (A) (A) (A) (A) (A) (A) (A)
                 (A) (A) (A) (A) (A) (A) (A) (A) (A) (A) (A) (A)
                 (A) (A) (A) (A) (A) (A) (A) (A) (A) (A) (A) (A)
                 (A) (A) (A) (A) (A) (A) (A) (A) (A) (A) (A) (A)
                 (A) (A) (A) (A) (A) (A) (A) (A) (A) (A) (A) (A)
                 (A) (A) (A) (A) (A) (A) (A) (A) (A) (A) (A) (A)
                 (A) (A) (A) (A) (A) (A) (A) (A) (A) (A) (A) (A)
                 (A) (A) (A) (A) (A) (A) (A) (A) (A) (A) (A) (A)
                 (A) (A) (A) (A) (A) (A) (A) (A) (A) (A) (A) (A)
                 (A) (A) (A) (A) (A) (A) (A) (A) (A) (A) (A)
 The electronic state is 1-A.
 Alpha  occ. eigenvalues --  -77.07462 -77.07213 -19.17350 -19.05895 -19.05885
 Alpha  occ. eigenvalues --  -14.35872 -10.26072 -10.24526 -10.24509 -10.20957
 Alpha  occ. eigenvalues --  -10.20437 -10.20250 -10.20245 -10.19982 -10.19776
 Alpha  occ. eigenvalues --  -10.19762 -10.19188 -10.19126 -10.17389 -10.17371
 Alpha  occ. eigenvalues --  -10.17295 -10.17236 -10.17210 -10.17130 -10.17109
 Alpha  occ. eigenvalues --  -10.17104 -10.16574 -10.16567 -10.16509 -10.16495
 Alpha  occ. eigenvalues --   -6.56643  -6.56422  -4.73275  -4.73206  -4.73056
 Alpha  occ. eigenvalues --   -4.72981  -4.72927  -4.72702  -3.00176  -1.85297
 Alpha  occ. eigenvalues --   -1.83633  -1.83120  -1.07467  -0.95851  -0.87895
 Alpha  occ. eigenvalues --   -0.87330  -0.82069  -0.81421  -0.80249  -0.79904
 Alpha  occ. eigenvalues --   -0.79279  -0.79057  -0.73522  -0.69905  -0.67941
 Alpha  occ. eigenvalues --   -0.67718  -0.67419  -0.67163  -0.66958  -0.66622
 Alpha  occ. eigenvalues --   -0.66506  -0.66241  -0.63921  -0.62844  -0.59761
 Alpha  occ. eigenvalues --   -0.59526  -0.54009  -0.53744  -0.53686  -0.51479
 Alpha  occ. eigenvalues --   -0.51315  -0.50179  -0.49478  -0.46794  -0.46646
 Alpha  occ. eigenvalues --   -0.45810  -0.45045  -0.44486  -0.44422  -0.44299
 Alpha  occ. eigenvalues --   -0.44093  -0.43916  -0.43593  -0.43303  -0.42595
 Alpha  occ. eigenvalues --   -0.42548  -0.42325  -0.42047  -0.41920  -0.41805
 Alpha  occ. eigenvalues --   -0.41495  -0.41140  -0.40424  -0.39826  -0.39105
 Alpha  occ. eigenvalues --   -0.38861  -0.38769  -0.38258  -0.37605  -0.37484
 Alpha  occ. eigenvalues --   -0.37152  -0.37135  -0.37055  -0.36830  -0.36686
 Alpha  occ. eigenvalues --   -0.35953  -0.35603  -0.35532  -0.35435  -0.34568
 Alpha  occ. eigenvalues --   -0.34251  -0.33802  -0.33570  -0.32919  -0.32595
 Alpha  occ. eigenvalues --   -0.32297  -0.32077  -0.31977  -0.31504  -0.31203
 Alpha  occ. eigenvalues --   -0.30547  -0.30246  -0.29599  -0.29121  -0.28763
 Alpha  occ. eigenvalues --   -0.26864  -0.25771  -0.25482  -0.25387  -0.23929
 Alpha  occ. eigenvalues --   -0.22316  -0.19943  -0.17296
 Alpha virt. eigenvalues --   -0.04454  -0.02469   0.00473   0.01486   0.01659
 Alpha virt. eigenvalues --    0.02770   0.05148   0.06108   0.06370   0.06585
 Alpha virt. eigenvalues --    0.07335   0.07957   0.08202   0.08392   0.08510
 Alpha virt. eigenvalues --    0.08643   0.09398   0.09875   0.10017   0.10247
 Alpha virt. eigenvalues --    0.10610   0.11092   0.11292   0.11555   0.11902
 Alpha virt. eigenvalues --    0.12352   0.12763   0.12947   0.13440   0.13650
 Alpha virt. eigenvalues --    0.13785   0.14259   0.14488   0.14574   0.14716
 Alpha virt. eigenvalues --    0.15062   0.15435   0.15726   0.16544   0.16724
 Alpha virt. eigenvalues --    0.16895   0.17001   0.17440   0.17622   0.17742
 Alpha virt. eigenvalues --    0.17839   0.18312   0.18443   0.18905   0.19083
 Alpha virt. eigenvalues --    0.19905   0.20076   0.20519   0.21074   0.21236
 Alpha virt. eigenvalues --    0.21338   0.21594   0.21836   0.21972   0.22335
 Alpha virt. eigenvalues --    0.22721   0.23005   0.23807   0.24365   0.24645
 Alpha virt. eigenvalues --    0.25291   0.25523   0.26057   0.26242   0.26620
 Alpha virt. eigenvalues --    0.26958   0.27394   0.28707   0.29433   0.29787
 Alpha virt. eigenvalues --    0.30630   0.31113   0.31647   0.32611   0.33503
 Alpha virt. eigenvalues --    0.35800   0.35928   0.36761   0.38068   0.39101
 Alpha virt. eigenvalues --    0.39780   0.40392   0.40584   0.41069   0.41528
 Alpha virt. eigenvalues --    0.42647   0.43092   0.43214   0.43479   0.44005
 Alpha virt. eigenvalues --    0.44487   0.44940   0.45056   0.45545   0.46552
 Alpha virt. eigenvalues --    0.46780   0.47391   0.47557   0.48264   0.49077
 Alpha virt. eigenvalues --    0.50064   0.50173   0.51059   0.51429   0.53339
 Alpha virt. eigenvalues --    0.53640   0.54103   0.54499   0.54638   0.55105
 Alpha virt. eigenvalues --    0.55515   0.56020   0.56383   0.57300   0.57555
 Alpha virt. eigenvalues --    0.57820   0.58520   0.59060   0.59509   0.59705
 Alpha virt. eigenvalues --    0.59930   0.60443   0.60941   0.61052   0.61498
 Alpha virt. eigenvalues --    0.62093   0.62865   0.62952   0.63074   0.63396
 Alpha virt. eigenvalues --    0.63469   0.64068   0.64353   0.64593   0.64811
 Alpha virt. eigenvalues --    0.65101   0.65382   0.65585   0.65738   0.65912
 Alpha virt. eigenvalues --    0.66083   0.66605   0.66665   0.67202   0.67403
 Alpha virt. eigenvalues --    0.67574   0.67883   0.68043   0.68396   0.68620
 Alpha virt. eigenvalues --    0.68755   0.69240   0.69267   0.69607   0.69814
 Alpha virt. eigenvalues --    0.70137   0.70294   0.70424   0.70893   0.71069
 Alpha virt. eigenvalues --    0.71224   0.71544   0.71787   0.71884   0.72257
 Alpha virt. eigenvalues --    0.72957   0.73057   0.73217   0.73516   0.73791
 Alpha virt. eigenvalues --    0.73879   0.74180   0.74494   0.74846   0.75090
 Alpha virt. eigenvalues --    0.75236   0.75759   0.76171   0.76557   0.76748
 Alpha virt. eigenvalues --    0.77631   0.77944   0.78659   0.78758   0.79118
 Alpha virt. eigenvalues --    0.79522   0.80108   0.80513   0.80641   0.80931
 Alpha virt. eigenvalues --    0.81379   0.81485   0.82296   0.82560   0.83009
 Alpha virt. eigenvalues --    0.83320   0.83779   0.84105   0.84173   0.84523
 Alpha virt. eigenvalues --    0.84905   0.85597   0.86326   0.87538   0.88366
 Alpha virt. eigenvalues --    0.89135   0.89643   0.90612   0.91265   0.91873
 Alpha virt. eigenvalues --    0.92412   0.92848   0.92901   0.93626   0.95090
 Alpha virt. eigenvalues --    0.96489   0.98099   0.98598   0.99468   1.00311
 Alpha virt. eigenvalues --    1.01258   1.02186   1.03084   1.03426   1.04569
 Alpha virt. eigenvalues --    1.05393   1.05707   1.06244   1.06808   1.07180
 Alpha virt. eigenvalues --    1.07817   1.08585   1.09764   1.10896   1.11403
 Alpha virt. eigenvalues --    1.12493   1.12638   1.14913   1.15690   1.15832
 Alpha virt. eigenvalues --    1.16431   1.17623   1.18700   1.19146   1.19692
 Alpha virt. eigenvalues --    1.20691   1.21099   1.21651   1.22330   1.22899
 Alpha virt. eigenvalues --    1.23256   1.24105   1.24324   1.24434   1.25349
 Alpha virt. eigenvalues --    1.25951   1.27003   1.27867   1.28236   1.28988
 Alpha virt. eigenvalues --    1.29333   1.30268   1.30936   1.31525   1.32602
 Alpha virt. eigenvalues --    1.33492   1.34158   1.35454   1.36093   1.38165
 Alpha virt. eigenvalues --    1.40484   1.41108   1.43255   1.43538   1.45503
 Alpha virt. eigenvalues --    1.47495   1.48710   1.50017   1.50802   1.51353
 Alpha virt. eigenvalues --    1.51932   1.52808   1.53137   1.53839   1.54070
 Alpha virt. eigenvalues --    1.54793   1.55069   1.55440   1.55730   1.55924
 Alpha virt. eigenvalues --    1.56179   1.56659   1.57100   1.57231   1.57649
 Alpha virt. eigenvalues --    1.58037   1.58456   1.58702   1.59380   1.59846
 Alpha virt. eigenvalues --    1.60078   1.60246   1.60960   1.61465   1.61699
 Alpha virt. eigenvalues --    1.62182   1.63331   1.63906   1.64667   1.65112
 Alpha virt. eigenvalues --    1.65447   1.66313   1.66835   1.67649   1.68616
 Alpha virt. eigenvalues --    1.69037   1.69241   1.70462   1.71505   1.72491
 Alpha virt. eigenvalues --    1.72646   1.73465   1.74227   1.74676   1.75560
 Alpha virt. eigenvalues --    1.76118   1.76623   1.77135   1.77702   1.77936
 Alpha virt. eigenvalues --    1.78155   1.78352   1.79057   1.79419   1.79755
 Alpha virt. eigenvalues --    1.79953   1.81096   1.81279   1.81542   1.81563
 Alpha virt. eigenvalues --    1.82581   1.82843   1.83116   1.83551   1.84016
 Alpha virt. eigenvalues --    1.84311   1.84622   1.84775   1.85293   1.85818
 Alpha virt. eigenvalues --    1.86066   1.86512   1.87160   1.87325   1.87606
 Alpha virt. eigenvalues --    1.87962   1.88630   1.88871   1.89995   1.90344
 Alpha virt. eigenvalues --    1.90759   1.91411   1.91438   1.91791   1.92639
 Alpha virt. eigenvalues --    1.93077   1.93402   1.93642   1.94071   1.94185
 Alpha virt. eigenvalues --    1.94242   1.94680   1.95321   1.95408   1.96178
 Alpha virt. eigenvalues --    1.96337   1.96902   1.97065   1.97926   1.98157
 Alpha virt. eigenvalues --    1.98505   1.98877   1.99483   1.99690   2.00609
 Alpha virt. eigenvalues --    2.00956   2.01302   2.01866   2.02439   2.02789
 Alpha virt. eigenvalues --    2.03105   2.03284   2.03606   2.04301   2.04765
 Alpha virt. eigenvalues --    2.05229   2.07250   2.08383   2.09380   2.09638
 Alpha virt. eigenvalues --    2.11720   2.13486   2.14089   2.15985   2.16369
 Alpha virt. eigenvalues --    2.16909   2.17136   2.17640   2.17922   2.18180
 Alpha virt. eigenvalues --    2.18426   2.18739   2.19275   2.19800   2.20210
 Alpha virt. eigenvalues --    2.20662   2.21393   2.21906   2.22134   2.22775
 Alpha virt. eigenvalues --    2.23047   2.23832   2.24179   2.24762   2.25306
 Alpha virt. eigenvalues --    2.26429   2.27132   2.28687   2.30063   2.30589
 Alpha virt. eigenvalues --    2.32664   2.35168   2.36801   2.37991   2.38762
 Alpha virt. eigenvalues --    2.39421   2.39645   2.40406   2.40878   2.41206
 Alpha virt. eigenvalues --    2.42030   2.42202   2.42521   2.42627   2.43210
 Alpha virt. eigenvalues --    2.43574   2.44522   2.45565   2.45963   2.47107
 Alpha virt. eigenvalues --    2.48084   2.49030   2.49440   2.51312   2.51646
 Alpha virt. eigenvalues --    2.55261   2.55815   2.56052   2.56131   2.56368
 Alpha virt. eigenvalues --    2.56531   2.56742   2.57336   2.57585   2.59283
 Alpha virt. eigenvalues --    2.61468   2.62500   2.62731   2.62963   2.63195
 Alpha virt. eigenvalues --    2.63381   2.63715   2.63830   2.64220   2.64570
 Alpha virt. eigenvalues --    2.64638   2.64844   2.65311   2.65333   2.65624
 Alpha virt. eigenvalues --    2.66806   2.68616   2.72817   2.73048   2.73213
 Alpha virt. eigenvalues --    2.74115   2.74240   2.77050   2.78446   2.80466
 Alpha virt. eigenvalues --    2.82863   2.85285   2.85516   2.86959   2.87644
 Alpha virt. eigenvalues --    2.87698   2.88100   2.88913   2.89309   2.89429
 Alpha virt. eigenvalues --    2.90099   2.91200   2.91215   2.91414   2.92493
 Alpha virt. eigenvalues --    2.92912   2.93676   2.94041   2.94286   2.94832
 Alpha virt. eigenvalues --    2.95071   2.95624   2.96276   2.96838   2.96948
 Alpha virt. eigenvalues --    2.97190   2.97633   2.98685   2.99153   2.99654
 Alpha virt. eigenvalues --    3.00393   3.02360   3.02805   3.03409   3.05004
 Alpha virt. eigenvalues --    3.06524   3.06885   3.07181   3.07983   3.08838
 Alpha virt. eigenvalues --    3.09207   3.09356   3.09956   3.10511   3.12269
 Alpha virt. eigenvalues --    3.12729   3.12998   3.14084   3.19108   3.19720
 Alpha virt. eigenvalues --    3.33634   3.60219   3.73504   3.87977   3.89207
 Alpha virt. eigenvalues --   45.38703
          Condensed to atoms (all electrons):
 Mulliken charges:
               1
     1  O   -0.494099
     2  P    0.331589
     3  O   -0.171893
     4  N   -0.187058
     5  C    0.022464
     6  H    0.057536
     7  H    0.090693
     8  O   -0.502840
     9  P    0.346003
    10  C    0.015687
    11  C   -0.012770
    12  H    0.012532
    13  C    0.077286
    14  H    0.025908
    15  C   -0.012875
    16  H    0.012648
    17  C    0.008640
    18  C    0.022949
    19  H    0.056710
    20  H    0.087774
    21  C   -0.386900
    22  C   -0.393375
    23  C    0.068839
    24  H    0.009631
    25  H    0.022527
    26  H    0.032023
    27  C    0.067388
    28  H    0.014175
    29  H    0.028567
    30  H    0.032716
    31  Ru  -0.269021
    32  C    0.083302
    33  H    0.012500
    34  H    0.008728
    35  H    0.021445
    36  C    0.075798
    37  H    0.014164
    38  H    0.012217
    39  H    0.036448
    40  C    0.068225
    41  H    0.009233
    42  H   -0.001469
    43  H    0.017373
    44  C    0.083992
    45  H    0.008209
    46  H    0.025748
    47  H    0.031877
    48  C   -0.397187
    49  C   -0.376675
    50  C    0.064766
    51  H    0.011822
    52  H    0.029548
    53  H    0.034479
    54  C    0.081127
    55  H    0.010727
    56  H    0.008174
    57  H    0.020499
    58  C    0.106308
    59  H    0.003091
    60  H    0.016740
    61  H    0.029348
    62  C    0.079931
    63  H    0.004138
    64  H    0.003990
    65  H    0.007100
    66  C    0.063111
    67  H    0.006761
    68  H    0.040568
    69  H    0.014751
    70  C    0.082669
    71  H    0.006281
    72  H    0.026426
    73  H    0.028619
    74  C    0.106865
    75  H    0.182464
    76  H    0.182315
 Sum of Mulliken charges =  -0.00000
 Mulliken charges with hydrogens summed into heavy atoms:
               1
     1  O   -0.311784
     2  P    0.331589
     3  O   -0.171893
     4  N   -0.187058
     5  C    0.170693
     8  O   -0.320376
     9  P    0.346003
    10  C    0.015687
    11  C   -0.000238
    13  C    0.103194
    15  C   -0.000227
    17  C    0.008640
    18  C    0.167433
    21  C   -0.386900
    22  C   -0.393375
    23  C    0.133020
    27  C    0.142847
    31  Ru  -0.269021
    32  C    0.125975
    36  C    0.138627
    40  C    0.093362
    44  C    0.149826
    48  C   -0.397187
    49  C   -0.376675
    50  C    0.140615
    54  C    0.120528
    58  C    0.155487
    62  C    0.095159
    66  C    0.125190
    70  C    0.143995
    74  C    0.106865
 Electronic spatial extent (au):  <R**2>=          13387.4620
 Charge=             -0.0000 electrons
 Dipole moment (field-independent basis, Debye):
    X=             -2.5791    Y=              7.5011    Z=              0.0912  Tot=              7.9327
 Quadrupole moment (field-independent basis, Debye-Ang):
   XX=           -176.8408   YY=           -209.9427   ZZ=           -234.1782
   XY=              2.7373   XZ=             -4.2010   YZ=             -1.6617
 Traceless Quadrupole moment (field-independent basis, Debye-Ang):
   XX=             30.1465   YY=             -2.9555   ZZ=            -27.1910
   XY=              2.7373   XZ=             -4.2010   YZ=             -1.6617
 Octapole moment (field-independent basis, Debye-Ang**2):
  XXX=            -13.9513  YYY=            123.6411  ZZZ=             -0.4576  XYY=             -4.2512
  XXY=             -9.3901  XXZ=             -3.7829  XZZ=            -18.6179  YZZ=            -21.7561
  YYZ=              4.2031  XYZ=             -5.1549
 Hexadecapole moment (field-independent basis, Debye-Ang**3):
 XXXX=         -10244.3079 YYYY=          -4221.9859 ZZZZ=          -3144.7547 XXXY=             16.2981
 XXXZ=            -28.0766 YYYX=              7.6056 YYYZ=             -9.3405 ZZZX=             10.7413
 ZZZY=            -12.4636 XXYY=          -2411.9199 XXZZ=          -2218.1283 YYZZ=          -1280.5648
 XXYZ=              1.6690 YYXZ=            -71.2711 ZZXY=             19.2185
 N-N= 4.528577015003D+03 E-N=-1.371445413877D+04  KE= 1.921535011548D+03
 1\1\GINC-NODE110\SP\RB3LYP TD-FC\def2SVP\C24H45N1O3P2Ru1\DO57CIG\09-No
 v-2023\0\\# td=(triplets,nstates=50,conver=3) b3lyp scrf=(smd,solvent=
 water,checkpoint) def2svp empiricaldispersion=gd3bj int=ultrafine gues
 s=read geom=check\\Ru_DFT_S_T\\0,1\O,0,4.419035884,4.8820878492,10.508
 8268422\P,0,6.7492419575,5.3573906467,8.2177382501\O,0,6.8443380415,7.
 6757332572,11.6222668577\N,0,6.3299174748,2.8764758951,9.8058827289\C,
 0,7.4026756687,3.6788623602,7.7455627531\H,0,7.3041997032,3.4701915615
 ,6.6716259296\H,0,8.4778642023,3.7157116539,7.9796240805\O,0,8.6029253
 659,4.485623934,10.509582246\P,0,6.2633638984,3.7410363327,12.65183489
 25\C,0,6.7668124865,2.581381379,8.5601687327\C,0,6.6264568205,1.288810
 9538,8.0476104159\H,0,6.9816953658,1.0681270489,7.0404081496\C,0,6.026
 4282648,0.306168094,8.8334297876\H,0,5.9078520719,-0.7095778935,8.4499
 187364\C,0,5.5755855602,0.6321658037,10.111736295\H,0,5.101475846,-0.1
 136243925,10.7507997208\C,0,5.7381263587,1.9381960465,10.5808262108\C,
 0,5.2555186855,2.3411614104,11.9513977785\H,0,5.2096622559,1.469401224
 3,12.6181953351\H,0,4.2356803698,2.745510728,11.8591716945\C,0,8.04640
 30352,6.5972043194,7.5679506301\C,0,5.1494230872,5.5319172468,7.187879
 2918\C,0,9.2179927552,6.6967536254,8.5563328247\H,0,9.9343459638,7.436
 9617173,8.1634167569\H,0,9.749414049,5.7435142896,8.6670101713\H,0,8.8
 90505922,7.0472602001,9.5453513348\C,0,7.400920203,7.9894858456,7.4815
 21266\H,0,8.1919240426,8.7349538789,7.2982497239\H,0,6.8984017373,8.25
 99840948,8.4233587887\H,0,6.6775539633,8.0712001124,6.6611189669\Ru,0,
 6.5286916434,4.9034835955,10.562020176\C,0,8.625147108,6.1763291186,6.
 2076059618\H,0,9.347354349,6.9437346683,5.8814976815\H,0,7.8671006501,
 6.0814700123,5.4232369516\H,0,9.1712728916,5.2243730164,6.2798277517\C
 ,0,4.3645768339,6.7685219413,7.6749473948\H,0,3.3026213213,6.659955785
 ,7.4015234136\H,0,4.7305021581,7.6929502768,7.2120838415\H,0,4.4221550
 49,6.9147853165,8.7640728351\C,0,4.3133889633,4.2602901524,7.436997727
 1\H,0,3.3398511533,4.3834836706,6.9344314317\H,0,4.1359622546,4.098745
 5585,8.5069434429\H,0,4.7898742818,3.3670841736,7.0096510553\C,0,5.376
 5525178,5.6397743469,5.6738710798\H,0,4.3932299713,5.6186902813,5.1740
 862861\H,0,5.9619034903,4.7939059399,5.283703781\H,0,5.8694748118,6.57
 53953267,5.3815572496\C,0,5.1989909795,4.4699836531,14.0596068585\C,0,
 7.7873090642,2.8644089407,13.4030275403\C,0,6.0953779543,5.3127586473,
 14.9811930334\H,0,5.4532579138,5.870635801,15.6824588128\H,0,6.6799622
 1,6.0488370183,14.4073276748\H,0,6.7858338805,4.706523613,15.580571500
 7\C,0,4.4574688397,3.3858181817,14.8579537109\H,0,3.8632007971,3.87738
 51286,15.6467275028\H,0,5.1262538,2.6701711864,15.3468096892\H,0,3.755
 357132,2.826819776,14.2219618088\C,0,4.1412506571,5.4133112464,13.4681
 931131\H,0,3.5542196556,5.8311372075,14.3031055075\H,0,3.4555724004,4.
 8958545684,12.7882131654\H,0,4.5963585202,6.2484433356,12.9198254729\C
 ,0,8.8711379364,3.9130975304,13.7106115303\H,0,9.7833694471,3.39363776
 24,14.050024829\H,0,8.5728634807,4.6082881027,14.5043406283\H,0,9.1174
 214767,4.4859808002,12.8074309713\C,0,8.331833855,1.8848747954,12.3451
 824327\H,0,9.2823475117,1.4695591338,12.7198569955\H,0,8.5316249511,2.
 3804059892,11.3892381379\H,0,7.6511196826,1.0383108537,12.179657387\C,
 0,7.4775539464,2.0464975468,14.6639943416\H,0,8.3845391357,1.482754270
 1,14.9409028242\H,0,6.6746220824,1.3136798248,14.4947479699\H,0,7.2088
 261441,2.6718539326,15.5245162548\C,0,6.7122717911,6.5881831218,11.203
 7560095\H,0,9.0568290495,5.333525897,10.492526874\H,0,4.1327615358,5.5
 56950391,9.8858554693\\Version=ES64L-G16RevB.01\State=1-A\HF=-1998.998
 5913\RMSD=3.670e-09\PG=C01 [X(C24H45N1O3P2Ru1)]\\@


 A MAN BEGINS CUTTING HIS WISDOM TEETH THE 1ST
 TIME HE BITES OFF MORE THAN HE CAN CHEW.
 Job cpu time:       0 days 19 hours 14 minutes  8.3 seconds.
 Elapsed time:       0 days  0 hours 48 minutes 20.4 seconds.
 File lengths (MBytes):  RWF=  16952 Int=      0 D2E=      0 Chk=    801 Scr=      1
 Normal termination of Gaussian 16 at Thu Nov  9 19:53:53 2023.
