 Entering Gaussian System, Link 0=g16
 Input=tBut_Ru_T_Interpol_struc_0.gjf
 Output=tBut_Ru_T_Interpol_struc_0.log
 Initial command:
 /cluster/apps/g16/g16/l1.exe "/beegfs/do57cig/gauss2036247/Gau-181008.inp" -scrdir="/beegfs/do57cig/gauss2036247/"
 Default CPUs for threads: 0-23
 Default is to use a total of  24 processors:
                               24 via shared-memory
                                1 via Linda
 Entering Link 1 = /cluster/apps/g16/g16/l1.exe PID=    181010.
  
 Copyright (c) 1988-2017, Gaussian, Inc.  All Rights Reserved.
  
 This is part of the Gaussian(R) 16 program.  It is based on
 the Gaussian(R) 09 system (copyright 2009, Gaussian, Inc.),
 the Gaussian(R) 03 system (copyright 2003, Gaussian, Inc.),
 the Gaussian(R) 98 system (copyright 1998, Gaussian, Inc.),
 the Gaussian(R) 94 system (copyright 1995, Gaussian, Inc.),
 the Gaussian 92(TM) system (copyright 1992, Gaussian, Inc.),
 the Gaussian 90(TM) system (copyright 1990, Gaussian, Inc.),
 the Gaussian 88(TM) system (copyright 1988, Gaussian, Inc.),
 the Gaussian 86(TM) system (copyright 1986, Carnegie Mellon
 University), and the Gaussian 82(TM) system (copyright 1983,
 Carnegie Mellon University). Gaussian is a federally registered
 trademark of Gaussian, Inc.
  
 This software contains proprietary and confidential information,
 including trade secrets, belonging to Gaussian, Inc.
  
 This software is provided under written license and may be
 used, copied, transmitted, or stored only in accord with that
 written license.
  
 The following legend is applicable only to US Government
 contracts under FAR:
  
                    RESTRICTED RIGHTS LEGEND
  
 Use, reproduction and disclosure by the US Government is
 subject to restrictions as set forth in subparagraphs (a)
 and (c) of the Commercial Computer Software - Restricted
 Rights clause in FAR 52.227-19.
  
 Gaussian, Inc.
 340 Quinnipiac St., Bldg. 40, Wallingford CT 06492
  
  
 ---------------------------------------------------------------
 Warning -- This program may not be used in any manner that
 competes with the business of Gaussian, Inc. or will provide
 assistance to any competitor of Gaussian, Inc.  The licensee
 of this program is prohibited from giving any competitor of
 Gaussian, Inc. access to this program.  By using this program,
 the user acknowledges that Gaussian, Inc. is engaged in the
 business of creating and licensing software in the field of
 computational chemistry and represents and warrants to the
 licensee that it is not a competitor of Gaussian, Inc. and that
 it will not use this program in any manner prohibited above.
 ---------------------------------------------------------------
  

 Cite this work as:
 Gaussian 16, Revision B.01,
 M. J. Frisch, G. W. Trucks, H. B. Schlegel, G. E. Scuseria, 
 M. A. Robb, J. R. Cheeseman, G. Scalmani, V. Barone, 
 G. A. Petersson, H. Nakatsuji, X. Li, M. Caricato, A. V. Marenich, 
 J. Bloino, B. G. Janesko, R. Gomperts, B. Mennucci, H. P. Hratchian, 
 J. V. Ortiz, A. F. Izmaylov, J. L. Sonnenberg, D. Williams-Young, 
 F. Ding, F. Lipparini, F. Egidi, J. Goings, B. Peng, A. Petrone, 
 T. Henderson, D. Ranasinghe, V. G. Zakrzewski, J. Gao, N. Rega, 
 G. Zheng, W. Liang, M. Hada, M. Ehara, K. Toyota, R. Fukuda, 
 J. Hasegawa, M. Ishida, T. Nakajima, Y. Honda, O. Kitao, H. Nakai, 
 T. Vreven, K. Throssell, J. A. Montgomery, Jr., J. E. Peralta, 
 F. Ogliaro, M. J. Bearpark, J. J. Heyd, E. N. Brothers, K. N. Kudin, 
 V. N. Staroverov, T. A. Keith, R. Kobayashi, J. Normand, 
 K. Raghavachari, A. P. Rendell, J. C. Burant, S. S. Iyengar, 
 J. Tomasi, M. Cossi, J. M. Millam, M. Klene, C. Adamo, R. Cammi, 
 J. W. Ochterski, R. L. Martin, K. Morokuma, O. Farkas, 
 J. B. Foresman, and D. J. Fox, Gaussian, Inc., Wallingford CT, 2016.
 
 ******************************************
 Gaussian 16:  ES64L-G16RevB.01 20-Dec-2017
                16-Jan-2024 
 ******************************************
 %chk=tBut_Ru_T_Interpol_struc_0.chk
 SetSPE:  set environment variable "MP_BIND" = "yes"
 SetSPE:  set environment variable "MP_BLIST" = "0,1,2,3,4,5,6,7,8,9,10,11,12,13,14,15,16,17,18,19,20,21,22,23"
 Default route: CacheSize=81920
 ----------------------------------------------------------------------
 # td=(triplets,nstates=10,conver=3) b3lyp scrf=(smd,solvent=water) def
 2svp empiricaldispersion=gd3bj int=ultrafine scf=xqc
 ----------------------------------------------------------------------
 1/4=81920,38=1,172=1/1;
 2/4=81920,12=2,17=6,18=5,40=1/2;
 3/4=81920,5=43,7=101,11=9,25=1,30=1,70=32201,72=1,74=-5,75=-5,124=41/1,2,3,8;
 4/4=81920/1;
 5/4=81920,5=2,8=3,13=1,38=5,53=1/2,8;
 8/4=81920,6=1,10=1,108=10/1;
 9/4=81920,9=3,41=10,42=1,48=3,70=2/14;
 6/4=81920,7=2,8=2,9=2,10=2/1;
 99/4=81920,5=1,9=1/99;
 --------------------------
 tBut_Ru_T_Interpol_struc_0
 --------------------------
 Symbolic Z-matrix:
 Charge =  0 Multiplicity = 1
 O
 P                    1    B1
 O                    1    B2       2    A1
 N                    1    B3       2    A2       3    D1       0
 C                    2    B4       3    A3       4    D2       0
 H                    3    B5       4    A4       5    D3       0
 H                    4    B6       5    A5       6    D4       0
 O                    5    B7       6    A6       7    D5       0
 P                    6    B8       7    A7       8    D6       0
 C                    7    B9       8    A8       9    D7       0
 C                    8    B10      9    A9       10   D8       0
 H                    9    B11      10   A10      11   D9       0
 C                    10   B12      11   A11      12   D10      0
 H                    11   B13      12   A12      13   D11      0
 C                    12   B14      13   A13      14   D12      0
 H                    13   B15      14   A14      15   D13      0
 C                    14   B16      15   A15      16   D14      0
 C                    15   B17      16   A16      17   D15      0
 H                    16   B18      17   A17      18   D16      0
 H                    17   B19      18   A18      19   D17      0
 C                    18   B20      19   A19      20   D18      0
 C                    19   B21      20   A20      21   D19      0
 C                    20   B22      21   A21      22   D20      0
 H                    21   B23      22   A22      23   D21      0
 H                    22   B24      23   A23      24   D22      0
 H                    23   B25      24   A24      25   D23      0
 C                    24   B26      25   A25      26   D24      0
 H                    25   B27      26   A26      27   D25      0
 H                    26   B28      27   A27      28   D26      0
 H                    27   B29      28   A28      29   D27      0
 Ru                   28   B30      29   A29      30   D28      0
 C                    29   B31      30   A30      31   D29      0
 H                    30   B32      31   A31      32   D30      0
 H                    31   B33      32   A32      33   D31      0
 H                    32   B34      33   A33      34   D32      0
 C                    33   B35      34   A34      35   D33      0
 H                    34   B36      35   A35      36   D34      0
 H                    35   B37      36   A36      37   D35      0
 H                    36   B38      37   A37      38   D36      0
 C                    37   B39      38   A38      39   D37      0
 H                    38   B40      39   A39      40   D38      0
 H                    39   B41      40   A40      41   D39      0
 H                    40   B42      41   A41      42   D40      0
 C                    41   B43      42   A42      43   D41      0
 H                    42   B44      43   A43      44   D42      0
 H                    43   B45      44   A44      45   D43      0
 H                    44   B46      45   A45      46   D44      0
 C                    45   B47      46   A46      47   D45      0
 C                    46   B48      47   A47      48   D46      0
 C                    47   B49      48   A48      49   D47      0
 H                    48   B50      49   A49      50   D48      0
 H                    49   B51      50   A50      51   D49      0
 H                    50   B52      51   A51      52   D50      0
 C                    51   B53      52   A52      53   D51      0
 H                    52   B54      53   A53      54   D52      0
 H                    53   B55      54   A54      55   D53      0
 H                    54   B56      55   A55      56   D54      0
 C                    55   B57      56   A56      57   D55      0
 H                    56   B58      57   A57      58   D56      0
 H                    57   B59      58   A58      59   D57      0
 H                    58   B60      59   A59      60   D58      0
 C                    59   B61      60   A60      61   D59      0
 H                    60   B62      61   A61      62   D60      0
 H                    61   B63      62   A62      63   D61      0
 H                    62   B64      63   A63      64   D62      0
 C                    63   B65      64   A64      65   D63      0
 H                    64   B66      65   A65      66   D64      0
 H                    65   B67      66   A66      67   D65      0
 H                    66   B68      67   A67      68   D66      0
 C                    67   B69      68   A68      69   D67      0
 H                    68   B70      69   A69      70   D68      0
 H                    69   B71      70   A70      71   D69      0
 H                    70   B72      71   A71      72   D70      0
 C                    71   B73      72   A72      73   D71      0
 H                    72   B74      73   A73      74   D72      0
 H                    73   B75      74   A74      75   D73      0
       Variables:
  B1                    3.22134                  
  B2                    3.75744                  
  B3                    2.77745                  
  B4                    1.85307                  
  B5                    6.5422                   
  B6                    2.97145                  
  B7                    3.10897                  
  B8                    6.13577                  
  B9                    2.16036                  
  B10                   4.46274                  
  B11                   6.26661                  
  B12                   2.4402                   
  B13                   2.20256                  
  B14                   3.42884                  
  B15                   2.19241                  
  B16                   3.43221                  
  B17                   2.51872                  
  B18                   2.43101                  
  B19                   2.16035                  
  B20                   6.75865                  
  B21                   6.81487                  
  B22                   7.18335                  
  B23                   2.14901                  
  B24                   4.81861                  
  B25                   1.0984                   
  B26                   2.69968                  
  B27                   3.66082                  
  B28                   2.56208                  
  B29                   1.09737                  
  B30                   5.29454                  
  B31                   3.49798                  
  B32                   3.03304                  
  B33                   5.48749                  
  B34                   1.09978                  
  B35                   5.37768                  
  B36                   4.90325                  
  B37                   5.13122                  
  B38                   1.09733                  
  B39                   2.69572                  
  B40                   3.68067                  
  B41                   2.63145                  
  B42                   1.09818                  
  B43                   2.71852                  
  B44                   3.67292                  
  B45                   2.53615                  
  B46                   1.09727                  
  B47                   8.99331                  
  B48                   8.60862                  
  B49                   9.60324                  
  B50                   2.15786                  
  B51                   3.53369                  
  B52                   1.09737                  
  B53                   2.80267                  
  B54                   3.76839                  
  B55                   2.62099                  
  B56                   1.09978                  
  B57                   2.68334                  
  B58                   3.6759                   
  B59                   2.54904                  
  B60                   1.0984                   
  B61                   5.69946                  
  B62                   6.61927                  
  B63                   4.60422                  
  B64                   1.09734                  
  B65                   2.69572                  
  B66                   3.68065                  
  B67                   2.63167                  
  B68                   1.09818                  
  B69                   2.71854                  
  B70                   3.6729                   
  B71                   2.53604                  
  B72                   1.09727                  
  B73                   6.54712                  
  B74                   5.90338                  
  B75                   6.38495                  
  A1                   73.22197                  
  A2                   58.69468                  
  A3                  133.91013                  
  A4                   30.69063                  
  A5                   20.96077                  
  A6                  162.94249                  
  A7                   51.68306                  
  A8                   84.28946                  
  A9                   84.26437                  
  A10                   9.51216                  
  A11                  29.95996                  
  A12                  95.62332                  
  A13                  14.8157                   
  A14                  96.27736                  
  A15                  12.93477                  
  A16                  87.55204                  
  A17                  56.30729                  
  A18                  28.55415                  
  A19                 156.1103                   
  A20                  39.68745                  
  A21                  12.34841                  
  A22                 170.37446                  
  A23                  12.83465                  
  A24                 107.64489                  
  A25                  99.24651                  
  A26                  51.17619                  
  A27                  23.94528                  
  A28                 107.44365                  
  A29                  35.28534                  
  A30                  51.46666                  
  A31                  89.56035                  
  A32                  10.84846                  
  A33                 107.3121                   
  A34                  43.57746                  
  A35                 122.98423                  
  A36                  12.05551                  
  A37                 107.9911                   
  A38                 100.43404                  
  A39                  55.66447                  
  A40                  23.13078                  
  A41                 107.70291                  
  A42                  98.31191                  
  A43                  51.11316                  
  A44                  24.03065                  
  A45                 107.32134                  
  A46                  79.44068                  
  A47                  99.01372                  
  A48                   8.51484                  
  A49                 113.85653                  
  A50                  18.14433                  
  A51                 107.44364                  
  A52                  97.00796                  
  A53                  52.52059                  
  A54                  23.26735                  
  A55                 107.31243                  
  A56                 100.24559                  
  A57                  54.0489                   
  A58                  23.70179                  
  A59                 107.64507                  
  A60                  76.88154                  
  A61                  63.35718                  
  A62                  12.57631                  
  A63                 107.99224                  
  A64                 100.43456                  
  A65                  55.66542                  
  A66                  23.12996                  
  A67                 107.70357                  
  A68                  98.31103                  
  A69                  51.10696                  
  A70                  24.03168                  
  A71                 107.32065                  
  A72                  72.28832                  
  A73                  74.25388                  
  A74                  24.67717                  
  D1                 -116.4856                   
  D2                  -39.91564                  
  D3                    7.50227                  
  D4                  139.90355                  
  D5                   18.58541                  
  D6                  -19.5404                   
  D7                   -4.7975                   
  D8                  -10.14301                  
  D9                   11.68397                  
  D10                 180.25321                  
  D11                   0.09634                  
  D12                 179.86415                  
  D13                   0.09821                  
  D14                 179.45073                  
  D15                  -0.54828                  
  D16                 -12.14924                  
  D17                 119.19551                  
  D18                -173.98182                  
  D19                 -21.96174                  
  D20                -178.98351                  
  D21                 -30.92274                  
  D22                 129.33004                  
  D23                 117.42454                  
  D24                 -61.72921                  
  D25                  22.63892                  
  D26                 109.22439                  
  D27                 116.89812                  
  D28                 -99.53713                  
  D29                  58.31913                  
  D30                 -14.94422                  
  D31                 141.20053                  
  D32                 116.57642                  
  D33                -101.87524                  
  D34                  -7.59253                  
  D35                 102.71389                  
  D36                 117.09762                  
  D37                 -64.21093                  
  D38                  21.19682                  
  D39                 108.26185                  
  D40                 117.60617                  
  D41                 -61.31696                  
  D42                  22.59714                  
  D43                 108.78259                  
  D44                 116.91383                  
  D45                 -86.52456                  
  D46                 -16.52483                  
  D47                 -82.75036                  
  D48                  -8.63406                  
  D49                -168.39921                  
  D50                 116.89744                  
  D51                 -62.52215                  
  D52                  21.50028                  
  D53                 107.50256                  
  D54                 116.57671                  
  D55                 -62.5148                   
  D56                  21.69363                  
  D57                 107.91321                  
  D58                 117.42464                  
  D59                 -58.39256                  
  D60                   1.37354                  
  D61                  31.69661                  
  D62                 117.09935                  
  D63                 -64.21328                  
  D64                  21.19671                  
  D65                 108.26245                  
  D66                 117.60372                  
  D67                 -61.31109                  
  D68                  22.59919                  
  D69                 108.7832                   
  D70                 116.91462                  
  D71                 -64.32196                  
  D72                  25.98928                  
  D73                -131.07968                  
 
 Stoichiometry    C24H45NO3P2Ru
 Framework group  C1[X(C24H45NO3P2Ru)]
 Deg. of freedom   222
 Full point group                 C1      NOp   1
 Largest Abelian subgroup         C1      NOp   1
 Largest concise Abelian subgroup C1      NOp   1
                         Standard orientation:                         
 ---------------------------------------------------------------------
 Center     Atomic      Atomic             Coordinates (Angstroms)
 Number     Number       Type             X           Y           Z
 ---------------------------------------------------------------------
      1          8           0       -0.012267    0.326453   -1.986898
      2         15           0        2.415890    0.100891    0.117913
      3          8           0        0.000433    3.515434    0.000202
      4          7           0       -0.000058   -1.614533   -0.000286
      5          6           0        2.281391   -1.539750    0.968831
      6          1           0        3.217410   -2.110831    0.892721
      7          1           0        2.141989   -1.279010    2.031601
      8          8           0        0.012305    0.325851    1.986899
      9         15           0       -2.415887    0.101021   -0.117907
     10          6           0        1.106660   -2.339462    0.459763
     11          6           0        1.122405   -3.716215    0.455421
     12          1           0        2.020411   -4.225372    0.815907
     13          6           0       -0.000270   -4.464950   -0.000240
     14          1           0       -0.000347   -5.555530   -0.000222
     15          6           0       -1.122832   -3.716069   -0.455922
     16          1           0       -2.020915   -4.225101   -0.816399
     17          6           0       -1.106886   -2.339322   -0.460306
     18          6           0       -2.281480   -1.539395   -0.969316
     19          1           0       -3.217557   -2.110414   -0.893523
     20          1           0       -2.141880   -1.278307   -2.031977
     21          6           0        3.487738    1.192536    1.251514
     22          6           0        3.303227   -0.235863   -1.532183
     23          6           0        2.638682    1.693648    2.430557
     24          1           0        3.287907    2.303018    3.080487
     25          1           0        2.233438    0.871653    3.033778
     26          1           0        1.809944    2.331840    2.095309
     27          6           0        3.969401    2.425100    0.471092
     28          1           0        4.440310    3.127376    1.178233
     29          1           0        3.130152    2.949432   -0.011797
     30          1           0        4.716396    2.178215   -0.293936
     31         44           0       -0.000014    0.495365    0.000024
     32          6           0        4.678734    0.412665    1.832803
     33          1           0        5.252930    1.090759    2.486149
     34          1           0        5.362955    0.033354    1.066624
     35          1           0        4.344550   -0.432864    2.451606
     36          6           0        3.148488    0.979593   -2.461412
     37          1           0        3.576217    0.728279   -3.446306
     38          1           0        3.676646    1.864837   -2.087547
     39          1           0        2.091597    1.236641   -2.606497
     40          6           0        2.632161   -1.458871   -2.184549
     41          1           0        3.073525   -1.596038   -3.185688
     42          1           0        1.551942   -1.320514   -2.299478
     43          1           0        2.813128   -2.377764   -1.611065
     44          6           0        4.791078   -0.566251   -1.347243
     45          1           0        5.197983   -0.877645   -2.323887
     46          1           0        4.944006   -1.398998   -0.644935
     47          1           0        5.379333    0.295669   -1.008049
     48          6           0       -3.487697    1.193060   -1.251181
     49          6           0       -3.303211   -0.236158    1.532115
     50          6           0       -3.969325    2.425381   -0.470365
     51          1           0       -4.440175    3.127918   -1.177284
     52          1           0       -3.130060    2.949508    0.012726
     53          1           0       -4.716353    2.178287    0.294565
     54          6           0       -4.678708    0.413440   -1.832791
     55          1           0       -5.252772    1.091774   -2.486003
     56          1           0       -5.363044    0.033975   -1.066788
     57          1           0       -4.344536   -0.431946   -2.451796
     58          6           0       -2.638606    1.694525   -2.430049
     59          1           0       -3.287817    2.304076   -3.079824
     60          1           0       -2.233341    0.872699   -3.033483
     61          1           0       -1.809878    2.332623   -2.094599
     62          6           0       -3.148326    0.978996    2.461706
     63          1           0       -3.575994    0.727395    3.446553
     64          1           0       -3.676486    1.864373    2.088145
     65          1           0       -2.091406    1.235944    2.606772
     66          6           0       -2.632247   -1.459460    2.184054
     67          1           0       -3.073494   -1.596844    3.185210
     68          1           0       -1.551982   -1.321378    2.298869
     69          1           0       -2.813455   -2.378145    1.610312
     70          6           0       -4.791095   -0.566380    1.347157
     71          1           0       -5.197953   -0.878126    2.323713
     72          1           0       -4.944136   -1.398855    0.644557
     73          1           0       -5.379315    0.295716    1.008356
     74          6           0        0.000225    2.353745    0.000199
     75          1           0        0.057721    1.197736    2.402119
     76          1           0       -0.057409    1.198435   -2.401932
 ---------------------------------------------------------------------
 Rotational constants (GHZ):           0.1949338           0.1074638           0.0947454
 Standard basis: def2SVP (5D, 7F)
 There are   719 symmetry adapted cartesian basis functions of A   symmetry.
 There are   684 symmetry adapted basis functions of A   symmetry.
   684 basis functions,  1154 primitive gaussians,   719 cartesian basis functions
   133 alpha electrons      133 beta electrons
       nuclear repulsion energy      4526.8830165833 Hartrees.
 NAtoms=   76 NActive=   76 NUniq=   76 SFac= 1.00D+00 NAtFMM=   60 NAOKFM=T Big=T
 Integral buffers will be    131072 words long.
 Regular integral format.
 Two-electron integral symmetry is turned on.
 Nuclear repulsion after empirical dispersion term =     4526.6629258142 Hartrees.
 ------------------------------------------------------------------------------
 Polarizable Continuum Model (PCM)
 =================================
 Model                : PCM.
 Atomic radii         : SMD-Coulomb.
 Polarization charges : Total charges.
 Charge compensation  : None.
 Solution method      : On-the-fly selection.
 Cavity type          : VdW (van der Waals Surface) (Alpha=1.000).
 Cavity algorithm     : GePol (No added spheres)
                        Default sphere list used, NSphG=   76.
                        Lebedev-Laikov grids with approx.  5.0 points / Ang**2.
                        Smoothing algorithm: York/Karplus (Gamma=1.0000).
                        Polarization charges: spherical gaussians, with
                                              point-specific exponents (IZeta= 3).
                        Self-potential: point-specific (ISelfS= 7).
                        Self-field    : sphere-specific E.n sum rule (ISelfD= 2).
 Solvent              : Water, Eps=  78.355300 Eps(inf)=   1.777849
 ------------------------------------------------------------------------------
 ------------------------------------------------------------------------------
 Atomic radii for non-electrostatic terms: SMD-CDS.
 ------------------------------------------------------------------------------
 Nuclear repulsion after PCM non-electrostatic terms =     4526.6829092585 Hartrees.
 One-electron integrals computed using PRISM.
   1 Symmetry operations used in ECPInt.
 ECPInt:  NShTT=   54615 NPrTT=  190596 LenC2=   48089 LenP2D=  113673.
 LDataN:  DoStor=T MaxTD1= 7 Len=  274
 NBasis=   684 RedAO= T EigKep=  5.14D-04  NBF=   684
 NBsUse=   684 1.00D-06 EigRej= -1.00D+00 NBFU=   684
 Defaulting to unpruned grid for atomic number  44.
 ExpMin= 3.92D-02 ExpMax= 8.00D+03 ExpMxC= 1.20D+03 IAcc=3 IRadAn=         5 AccDes= 0.00D+00
 Harris functional with IExCor=  402 and IRadAn=       5 diagonalized for initial guess.
 HarFok:  IExCor=  402 AccDes= 0.00D+00 IRadAn=         5 IDoV= 1 UseB2=F ITyADJ=14
 ICtDFT=  3500011 ScaDFX=  1.000000  1.000000  1.000000  1.000000
 Defaulting to unpruned grid for atomic number  44.
 FoFCou: FMM=F IPFlag=           0 FMFlag=      100000 FMFlg1=        2001
         NFxFlg=           0 DoJE=T BraDBF=F KetDBF=T FulRan=T
         wScrn=  0.000000 ICntrl=       500 IOpCl=  0 I1Cent=   200000004 NGrid=           0
         NMat0=    1 NMatS0=      1 NMatT0=    0 NMatD0=    1 NMtDS0=    0 NMtDT0=    0
 Petite list used in FoFCou.
 Requested convergence on RMS density matrix=1.00D-08 within  32 cycles.
 Requested convergence on MAX density matrix=1.00D-06.
 Requested convergence on             energy=1.00D-06.
 No special actions if energy rises.
 Defaulting to unpruned grid for atomic number  44.
 Defaulting to unpruned grid for atomic number  44.
 Defaulting to unpruned grid for atomic number  44.
 Defaulting to unpruned grid for atomic number  44.
 Defaulting to unpruned grid for atomic number  44.
 Defaulting to unpruned grid for atomic number  44.
 Defaulting to unpruned grid for atomic number  44.
 Defaulting to unpruned grid for atomic number  44.
 Defaulting to unpruned grid for atomic number  44.
 Defaulting to unpruned grid for atomic number  44.
 Defaulting to unpruned grid for atomic number  44.
 Defaulting to unpruned grid for atomic number  44.
 Defaulting to unpruned grid for atomic number  44.
 Defaulting to unpruned grid for atomic number  44.
 Defaulting to unpruned grid for atomic number  44.
 Defaulting to unpruned grid for atomic number  44.
 Defaulting to unpruned grid for atomic number  44.
 Defaulting to unpruned grid for atomic number  44.
 Defaulting to unpruned grid for atomic number  44.
 Defaulting to unpruned grid for atomic number  44.
 Defaulting to unpruned grid for atomic number  44.
 Defaulting to unpruned grid for atomic number  44.
 Defaulting to unpruned grid for atomic number  44.
 Defaulting to unpruned grid for atomic number  44.
 Inv3:  Mode=1 IEnd=    66580563.
 Iteration    1 A*A^-1 deviation from unit magnitude is 4.00D-15 for   4557.
 Iteration    1 A*A^-1 deviation from orthogonality  is 2.55D-15 for   4023   1692.
 Iteration    1 A^-1*A deviation from unit magnitude is 3.89D-15 for   4557.
 Iteration    1 A^-1*A deviation from orthogonality  is 1.89D-15 for   3817    584.
 Error on total polarization charges =  0.07563
 SCF Done:  E(RB3LYP) =  -1998.98030805     A.U. after   16 cycles
            NFock= 16  Conv=0.48D-08     -V/T= 2.0403
 SMD-CDS (non-electrostatic) energy       (kcal/mol) =      12.54
 (included in total energy above)
 QCSCF skips out because SCF is already converged.
 DoSCS=F DFT=T ScalE2(SS,OS)=  1.000000  1.000000
 ExpMin= 3.92D-02 ExpMax= 8.00D+03 ExpMxC= 1.20D+03 IAcc=3 IRadAn=         5 AccDes= 0.00D+00
 HarFok:  IExCor=  205 AccDes= 0.00D+00 IRadAn=         5 IDoV=-2 UseB2=F ITyADJ=14
 ICtDFT= 12500011 ScaDFX=  1.000000  1.000000  1.000000  1.000000
 Defaulting to unpruned grid for atomic number  44.
 GSVD:  LWork=       -2100 too small for GESVD, short by        9450 words or        9450 for optimal perf.
 Range of M.O.s used for correlation:    43   684
 NBasis=   684 NAE=   133 NBE=   133 NFC=    42 NFV=     0
 NROrb=    642 NOA=    91 NOB=    91 NVA=   551 NVB=   551

 **** Warning!!: The smallest alpha delta epsilon is  0.82727248D-01

 NEqPCM:  Using non-equilibrium solvation (IEInf=1, Eps=  78.3553, EpsInf=   1.7778)
 Inv3:  Mode=1 IEnd=    66580563.
 Iteration    1 A*A^-1 deviation from unit magnitude is 3.33D-15 for   3659.
 Iteration    1 A*A^-1 deviation from orthogonality  is 2.11D-15 for   3267   1122.
 Iteration    1 A^-1*A deviation from unit magnitude is 3.33D-15 for   3659.
 Iteration    1 A^-1*A deviation from orthogonality  is 2.78D-15 for   2936   1261.
 Orbital symmetries:
       Occupied  (A) (A) (A) (A) (A) (A) (A) (A) (A) (A) (A) (A)
                 (A) (A) (A) (A) (A) (A) (A) (A) (A) (A) (A) (A)
                 (A) (A) (A) (A) (A) (A) (A) (A) (A) (A) (A) (A)
                 (A) (A) (A) (A) (A) (A) (A) (A) (A) (A) (A) (A)
                 (A) (A) (A) (A) (A) (A) (A) (A) (A) (A) (A) (A)
                 (A) (A) (A) (A) (A) (A) (A) (A) (A) (A) (A) (A)
                 (A) (A) (A) (A) (A) (A) (A) (A) (A) (A) (A) (A)
                 (A) (A) (A) (A) (A) (A) (A) (A) (A) (A) (A) (A)
                 (A) (A) (A) (A) (A) (A) (A) (A) (A) (A) (A) (A)
                 (A) (A) (A) (A) (A) (A) (A) (A) (A) (A) (A) (A)
                 (A) (A) (A) (A) (A) (A) (A) (A) (A) (A) (A) (A)
                 (A)
       Virtual   (A) (A) (A) (A) (A) (A) (A) (A) (A) (A) (A) (A)
                 (A) (A) (A) (A) (A) (A) (A) (A) (A) (A) (A) (A)
                 (A) (A) (A) (A) (A) (A) (A) (A) (A) (A) (A) (A)
                 (A) (A) (A) (A) (A) (A) (A) (A) (A) (A) (A) (A)
                 (A) (A) (A) (A) (A) (A) (A) (A) (A) (A) (A) (A)
                 (A) (A) (A) (A) (A) (A) (A) (A) (A) (A) (A) (A)
                 (A) (A) (A) (A) (A) (A) (A) (A) (A) (A) (A) (A)
                 (A) (A) (A) (A) (A) (A) (A) (A) (A) (A) (A) (A)
                 (A) (A) (A) (A) (A) (A) (A) (A) (A) (A) (A) (A)
                 (A) (A) (A) (A) (A) (A) (A) (A) (A) (A) (A) (A)
                 (A) (A) (A) (A) (A) (A) (A) (A) (A) (A) (A) (A)
                 (A) (A) (A) (A) (A) (A) (A) (A) (A) (A) (A) (A)
                 (A) (A) (A) (A) (A) (A) (A) (A) (A) (A) (A) (A)
                 (A) (A) (A) (A) (A) (A) (A) (A) (A) (A) (A) (A)
                 (A) (A) (A) (A) (A) (A) (A) (A) (A) (A) (A) (A)
                 (A) (A) (A) (A) (A) (A) (A) (A) (A) (A) (A) (A)
                 (A) (A) (A) (A) (A) (A) (A) (A) (A) (A) (A) (A)
                 (A) (A) (A) (A) (A) (A) (A) (A) (A) (A) (A) (A)
                 (A) (A) (A) (A) (A) (A) (A) (A) (A) (A) (A) (A)
                 (A) (A) (A) (A) (A) (A) (A) (A) (A) (A) (A) (A)
                 (A) (A) (A) (A) (A) (A) (A) (A) (A) (A) (A) (A)
                 (A) (A) (A) (A) (A) (A) (A) (A) (A) (A) (A) (A)
                 (A) (A) (A) (A) (A) (A) (A) (A) (A) (A) (A) (A)
                 (A) (A) (A) (A) (A) (A) (A) (A) (A) (A) (A) (A)
                 (A) (A) (A) (A) (A) (A) (A) (A) (A) (A) (A) (A)
                 (A) (A) (A) (A) (A) (A) (A) (A) (A) (A) (A) (A)
                 (A) (A) (A) (A) (A) (A) (A) (A) (A) (A) (A) (A)
                 (A) (A) (A) (A) (A) (A) (A) (A) (A) (A) (A) (A)
                 (A) (A) (A) (A) (A) (A) (A) (A) (A) (A) (A) (A)
                 (A) (A) (A) (A) (A) (A) (A) (A) (A) (A) (A) (A)
                 (A) (A) (A) (A) (A) (A) (A) (A) (A) (A) (A) (A)
                 (A) (A) (A) (A) (A) (A) (A) (A) (A) (A) (A) (A)
                 (A) (A) (A) (A) (A) (A) (A) (A) (A) (A) (A) (A)
                 (A) (A) (A) (A) (A) (A) (A) (A) (A) (A) (A) (A)
                 (A) (A) (A) (A) (A) (A) (A) (A) (A) (A) (A) (A)
                 (A) (A) (A) (A) (A) (A) (A) (A) (A) (A) (A) (A)
                 (A) (A) (A) (A) (A) (A) (A) (A) (A) (A) (A) (A)
                 (A) (A) (A) (A) (A) (A) (A) (A) (A) (A) (A) (A)
                 (A) (A) (A) (A) (A) (A) (A) (A) (A) (A) (A) (A)
                 (A) (A) (A) (A) (A) (A) (A) (A) (A) (A) (A) (A)
                 (A) (A) (A) (A) (A) (A) (A) (A) (A) (A) (A) (A)
                 (A) (A) (A) (A) (A) (A) (A) (A) (A) (A) (A) (A)
                 (A) (A) (A) (A) (A) (A) (A) (A) (A) (A) (A) (A)
                 (A) (A) (A) (A) (A) (A) (A) (A) (A) (A) (A) (A)
                 (A) (A) (A) (A) (A) (A) (A) (A) (A) (A) (A) (A)
                 (A) (A) (A) (A) (A) (A) (A) (A) (A) (A) (A)
    40 initial guesses have been made.
 Convergence on wavefunction:    0.001000000000000
 Iteration     1 Dimension    40 NMult     0 NNew     40
 CISAX will form    40 AO SS matrices at one time.
 Defaulting to unpruned grid for atomic number  44.
 Defaulting to unpruned grid for atomic number  44.
 Defaulting to unpruned grid for atomic number  44.
 Defaulting to unpruned grid for atomic number  44.
 Defaulting to unpruned grid for atomic number  44.
 Defaulting to unpruned grid for atomic number  44.
 Defaulting to unpruned grid for atomic number  44.
 Defaulting to unpruned grid for atomic number  44.
 Defaulting to unpruned grid for atomic number  44.
 Defaulting to unpruned grid for atomic number  44.
 Defaulting to unpruned grid for atomic number  44.
 Defaulting to unpruned grid for atomic number  44.
 Defaulting to unpruned grid for atomic number  44.
 Defaulting to unpruned grid for atomic number  44.
 Defaulting to unpruned grid for atomic number  44.
 Defaulting to unpruned grid for atomic number  44.
 Defaulting to unpruned grid for atomic number  44.
 Defaulting to unpruned grid for atomic number  44.
 Defaulting to unpruned grid for atomic number  44.
 Defaulting to unpruned grid for atomic number  44.
 Defaulting to unpruned grid for atomic number  44.
 Defaulting to unpruned grid for atomic number  44.
 Defaulting to unpruned grid for atomic number  44.
 Defaulting to unpruned grid for atomic number  44.
 New state      2 was old state      5
 New state      3 was old state      2
 New state      4 was old state      3
 New state      5 was old state      6
 New state      6 was old state     10
 New state      7 was old state      9
 New state      8 was old state      4
 New state      9 was old state      8
 New state     10 was old state     16
 Iteration     2 Dimension    60 NMult    40 NNew     20
 New state      9 was old state     10
 New state     10 was old state      9
 Iteration     3 Dimension    80 NMult    60 NNew     20
 New state      9 was old state     10
 New state     10 was old state      9
 Iteration     4 Dimension    98 NMult    80 NNew     18
 Iteration     5 Dimension   114 NMult    98 NNew     16
 Iteration     6 Dimension   118 NMult   114 NNew      4
 ***********************************************************************
 Excited states from <AA,BB:AA,BB> singles matrix:
 ***********************************************************************
 
 Ground to excited state transition densities written to RWF  633
 Ground to excited state transition electric dipole moments (Au):
       state          X           Y           Z        Dip. S.      Osc.
         1        -0.0000     -0.0000     -0.0000      0.0000      0.0000
         2        -0.0000     -0.0000     -0.0000      0.0000      0.0000
         3        -0.0000     -0.0000     -0.0000      0.0000      0.0000
         4        -0.0000     -0.0000     -0.0000      0.0000      0.0000
         5        -0.0000     -0.0000     -0.0000      0.0000      0.0000
         6        -0.0000     -0.0000     -0.0000      0.0000      0.0000
         7        -0.0000     -0.0000     -0.0000      0.0000      0.0000
         8        -0.0000     -0.0000     -0.0000      0.0000      0.0000
         9        -0.0000     -0.0000     -0.0000      0.0000      0.0000
        10        -0.0000     -0.0000     -0.0000      0.0000      0.0000
 Ground to excited state transition velocity dipole moments (Au):
       state          X           Y           Z        Dip. S.      Osc.
         1         0.0000      0.0000      0.0000      0.0000      0.0000
         2         0.0000      0.0000      0.0000      0.0000      0.0000
         3         0.0000      0.0000      0.0000      0.0000      0.0000
         4         0.0000      0.0000      0.0000      0.0000      0.0000
         5         0.0000      0.0000      0.0000      0.0000      0.0000
         6         0.0000      0.0000      0.0000      0.0000      0.0000
         7         0.0000      0.0000      0.0000      0.0000      0.0000
         8         0.0000      0.0000      0.0000      0.0000      0.0000
         9         0.0000      0.0000      0.0000      0.0000      0.0000
        10         0.0000      0.0000      0.0000      0.0000      0.0000
 Ground to excited state transition magnetic dipole moments (Au):
       state          X           Y           Z
         1         0.0000      0.0000      0.0000
         2         0.0000      0.0000      0.0000
         3         0.0000      0.0000      0.0000
         4         0.0000      0.0000      0.0000
         5         0.0000      0.0000      0.0000
         6         0.0000      0.0000      0.0000
         7         0.0000      0.0000      0.0000
         8         0.0000      0.0000      0.0000
         9         0.0000      0.0000      0.0000
        10         0.0000      0.0000      0.0000
 Ground to excited state transition velocity quadrupole moments (Au):
       state          XX          YY          ZZ          XY          XZ          YZ
         1         0.0000      0.0000      0.0000      0.0000      0.0000      0.0000
         2         0.0000      0.0000      0.0000      0.0000      0.0000      0.0000
         3         0.0000      0.0000      0.0000      0.0000      0.0000      0.0000
         4         0.0000      0.0000      0.0000      0.0000      0.0000      0.0000
         5         0.0000      0.0000      0.0000      0.0000      0.0000      0.0000
         6         0.0000      0.0000      0.0000      0.0000      0.0000      0.0000
         7         0.0000      0.0000      0.0000      0.0000      0.0000      0.0000
         8         0.0000      0.0000      0.0000      0.0000      0.0000      0.0000
         9         0.0000      0.0000      0.0000      0.0000      0.0000      0.0000
        10         0.0000      0.0000      0.0000      0.0000      0.0000      0.0000
 <0|del|b> * <b|rxdel|0> + <0|del|b> * <b|delr+rdel|0>
 Rotatory Strengths (R) in cgs (10**-40 erg-esu-cm/Gauss)
       state          XX          YY          ZZ    R(velocity)    E-M Angle
         1         0.0000      0.0000      0.0000      0.0000       90.00
         2         0.0000      0.0000      0.0000      0.0000       90.00
         3         0.0000      0.0000      0.0000      0.0000       90.00
         4         0.0000      0.0000      0.0000      0.0000       90.00
         5         0.0000      0.0000      0.0000      0.0000       90.00
         6         0.0000      0.0000      0.0000      0.0000       90.00
         7         0.0000      0.0000      0.0000      0.0000       90.00
         8         0.0000      0.0000      0.0000      0.0000       90.00
         9         0.0000      0.0000      0.0000      0.0000       90.00
        10         0.0000      0.0000      0.0000      0.0000       90.00
 1/2[<0|r|b>*<b|rxdel|0> + (<0|rxdel|b>*<b|r|0>)*]
 Rotatory Strengths (R) in cgs (10**-40 erg-esu-cm/Gauss)
       state          XX          YY          ZZ     R(length)
         1         0.0000      0.0000      0.0000      0.0000
         2         0.0000      0.0000      0.0000      0.0000
         3         0.0000      0.0000      0.0000      0.0000
         4         0.0000      0.0000      0.0000      0.0000
         5         0.0000      0.0000      0.0000      0.0000
         6         0.0000      0.0000      0.0000      0.0000
         7         0.0000      0.0000      0.0000      0.0000
         8         0.0000      0.0000      0.0000      0.0000
         9         0.0000      0.0000      0.0000      0.0000
        10         0.0000      0.0000      0.0000      0.0000
  1/2[<0|del|b>*<b|r|0> + (<0|r|b>*<b|del|0>)*] (Au)
       state          X           Y           Z        Dip. S.   Osc.(frdel)
         1        -0.0000     -0.0000     -0.0000      0.0000      0.0000
         2        -0.0000     -0.0000     -0.0000      0.0000      0.0000
         3        -0.0000     -0.0000     -0.0000      0.0000      0.0000
         4        -0.0000     -0.0000     -0.0000      0.0000      0.0000
         5        -0.0000     -0.0000     -0.0000      0.0000      0.0000
         6        -0.0000     -0.0000     -0.0000      0.0000      0.0000
         7        -0.0000     -0.0000     -0.0000      0.0000      0.0000
         8        -0.0000     -0.0000     -0.0000      0.0000      0.0000
         9        -0.0000     -0.0000     -0.0000      0.0000      0.0000
        10        -0.0000     -0.0000     -0.0000      0.0000      0.0000

 Excitation energies and oscillator strengths:
 
 Excited State   1:      Triplet-A      1.4088 eV  880.09 nm  f=0.0000  <S**2>=2.000
     133 ->134         0.70609
 This state for optimization and/or second-order correction.
 Total Energy, E(TD-HF/TD-DFT) =  -1998.92853654    
 Copying the excited state density for this state as the 1-particle RhoCI density.
 
 Excited State   2:      Triplet-A      2.1349 eV  580.75 nm  f=0.0000  <S**2>=2.000
     133 ->135         0.14624
     133 ->136         0.67223
 
 Excited State   3:      Triplet-A      2.4915 eV  497.63 nm  f=0.0000  <S**2>=2.000
     133 ->135         0.68650
     133 ->136        -0.14220
 
 Excited State   4:      Triplet-A      2.5738 eV  481.72 nm  f=0.0000  <S**2>=2.000
     122 ->134        -0.11800
     132 ->134         0.68157
 
 Excited State   5:      Triplet-A      2.8289 eV  438.27 nm  f=0.0000  <S**2>=2.000
     133 ->137         0.70149
 
 Excited State   6:      Triplet-A      2.9259 eV  423.75 nm  f=0.0000  <S**2>=2.000
     133 ->139         0.61723
     133 ->143         0.20898
     133 ->153         0.13289
     133 ->157        -0.11173
 
 Excited State   7:      Triplet-A      3.1915 eV  388.48 nm  f=0.0000  <S**2>=2.000
     133 ->138         0.69835
 
 Excited State   8:      Triplet-A      3.2158 eV  385.55 nm  f=0.0000  <S**2>=2.000
     131 ->134         0.69397
 
 Excited State   9:      Triplet-A      3.4995 eV  354.29 nm  f=0.0000  <S**2>=2.000
     122 ->134         0.17605
     128 ->135         0.12182
     130 ->134         0.29075
     132 ->137         0.57718
 
 Excited State  10:      Triplet-A      3.5589 eV  348.38 nm  f=0.0000  <S**2>=2.000
     132 ->135         0.21671
     132 ->136         0.65853
 SavETr:  write IOETrn=   770 NScale= 10 NData=  16 NLR=1 NState=   10 LETran=     190.

 **********************************************************************

            Population analysis using the SCF Density.

 **********************************************************************

 Orbital symmetries:
       Occupied  (A) (A) (A) (A) (A) (A) (A) (A) (A) (A) (A) (A)
                 (A) (A) (A) (A) (A) (A) (A) (A) (A) (A) (A) (A)
                 (A) (A) (A) (A) (A) (A) (A) (A) (A) (A) (A) (A)
                 (A) (A) (A) (A) (A) (A) (A) (A) (A) (A) (A) (A)
                 (A) (A) (A) (A) (A) (A) (A) (A) (A) (A) (A) (A)
                 (A) (A) (A) (A) (A) (A) (A) (A) (A) (A) (A) (A)
                 (A) (A) (A) (A) (A) (A) (A) (A) (A) (A) (A) (A)
                 (A) (A) (A) (A) (A) (A) (A) (A) (A) (A) (A) (A)
                 (A) (A) (A) (A) (A) (A) (A) (A) (A) (A) (A) (A)
                 (A) (A) (A) (A) (A) (A) (A) (A) (A) (A) (A) (A)
                 (A) (A) (A) (A) (A) (A) (A) (A) (A) (A) (A) (A)
                 (A)
       Virtual   (A) (A) (A) (A) (A) (A) (A) (A) (A) (A) (A) (A)
                 (A) (A) (A) (A) (A) (A) (A) (A) (A) (A) (A) (A)
                 (A) (A) (A) (A) (A) (A) (A) (A) (A) (A) (A) (A)
                 (A) (A) (A) (A) (A) (A) (A) (A) (A) (A) (A) (A)
                 (A) (A) (A) (A) (A) (A) (A) (A) (A) (A) (A) (A)
                 (A) (A) (A) (A) (A) (A) (A) (A) (A) (A) (A) (A)
                 (A) (A) (A) (A) (A) (A) (A) (A) (A) (A) (A) (A)
                 (A) (A) (A) (A) (A) (A) (A) (A) (A) (A) (A) (A)
                 (A) (A) (A) (A) (A) (A) (A) (A) (A) (A) (A) (A)
                 (A) (A) (A) (A) (A) (A) (A) (A) (A) (A) (A) (A)
                 (A) (A) (A) (A) (A) (A) (A) (A) (A) (A) (A) (A)
                 (A) (A) (A) (A) (A) (A) (A) (A) (A) (A) (A) (A)
                 (A) (A) (A) (A) (A) (A) (A) (A) (A) (A) (A) (A)
                 (A) (A) (A) (A) (A) (A) (A) (A) (A) (A) (A) (A)
                 (A) (A) (A) (A) (A) (A) (A) (A) (A) (A) (A) (A)
                 (A) (A) (A) (A) (A) (A) (A) (A) (A) (A) (A) (A)
                 (A) (A) (A) (A) (A) (A) (A) (A) (A) (A) (A) (A)
                 (A) (A) (A) (A) (A) (A) (A) (A) (A) (A) (A) (A)
                 (A) (A) (A) (A) (A) (A) (A) (A) (A) (A) (A) (A)
                 (A) (A) (A) (A) (A) (A) (A) (A) (A) (A) (A) (A)
                 (A) (A) (A) (A) (A) (A) (A) (A) (A) (A) (A) (A)
                 (A) (A) (A) (A) (A) (A) (A) (A) (A) (A) (A) (A)
                 (A) (A) (A) (A) (A) (A) (A) (A) (A) (A) (A) (A)
                 (A) (A) (A) (A) (A) (A) (A) (A) (A) (A) (A) (A)
                 (A) (A) (A) (A) (A) (A) (A) (A) (A) (A) (A) (A)
                 (A) (A) (A) (A) (A) (A) (A) (A) (A) (A) (A) (A)
                 (A) (A) (A) (A) (A) (A) (A) (A) (A) (A) (A) (A)
                 (A) (A) (A) (A) (A) (A) (A) (A) (A) (A) (A) (A)
                 (A) (A) (A) (A) (A) (A) (A) (A) (A) (A) (A) (A)
                 (A) (A) (A) (A) (A) (A) (A) (A) (A) (A) (A) (A)
                 (A) (A) (A) (A) (A) (A) (A) (A) (A) (A) (A) (A)
                 (A) (A) (A) (A) (A) (A) (A) (A) (A) (A) (A) (A)
                 (A) (A) (A) (A) (A) (A) (A) (A) (A) (A) (A) (A)
                 (A) (A) (A) (A) (A) (A) (A) (A) (A) (A) (A) (A)
                 (A) (A) (A) (A) (A) (A) (A) (A) (A) (A) (A) (A)
                 (A) (A) (A) (A) (A) (A) (A) (A) (A) (A) (A) (A)
                 (A) (A) (A) (A) (A) (A) (A) (A) (A) (A) (A) (A)
                 (A) (A) (A) (A) (A) (A) (A) (A) (A) (A) (A) (A)
                 (A) (A) (A) (A) (A) (A) (A) (A) (A) (A) (A) (A)
                 (A) (A) (A) (A) (A) (A) (A) (A) (A) (A) (A) (A)
                 (A) (A) (A) (A) (A) (A) (A) (A) (A) (A) (A) (A)
                 (A) (A) (A) (A) (A) (A) (A) (A) (A) (A) (A) (A)
                 (A) (A) (A) (A) (A) (A) (A) (A) (A) (A) (A) (A)
                 (A) (A) (A) (A) (A) (A) (A) (A) (A) (A) (A) (A)
                 (A) (A) (A) (A) (A) (A) (A) (A) (A) (A) (A) (A)
                 (A) (A) (A) (A) (A) (A) (A) (A) (A) (A) (A)
 The electronic state is 1-A.
 Alpha  occ. eigenvalues --  -77.06814 -77.06810 -19.17574 -19.04871 -19.04861
 Alpha  occ. eigenvalues --  -14.36344 -10.25746 -10.24659 -10.24655 -10.21782
 Alpha  occ. eigenvalues --  -10.20223 -10.20223 -10.20054 -10.20052 -10.19910
 Alpha  occ. eigenvalues --  -10.19910 -10.19269 -10.19268 -10.17316 -10.17316
 Alpha  occ. eigenvalues --  -10.17102 -10.17102 -10.17060 -10.17060 -10.16793
 Alpha  occ. eigenvalues --  -10.16792 -10.16610 -10.16609 -10.16500 -10.16499
 Alpha  occ. eigenvalues --   -6.56022  -6.56020  -4.72655  -4.72654  -4.72588
 Alpha  occ. eigenvalues --   -4.72587  -4.72290  -4.72290  -2.98600  -1.83755
 Alpha  occ. eigenvalues --   -1.81982  -1.81761  -1.08191  -0.93988  -0.87786
 Alpha  occ. eigenvalues --   -0.86794  -0.81909  -0.81300  -0.79745  -0.79623
 Alpha  occ. eigenvalues --   -0.79136  -0.79034  -0.73391  -0.69971  -0.67698
 Alpha  occ. eigenvalues --   -0.67678  -0.67212  -0.67178  -0.66658  -0.66657
 Alpha  occ. eigenvalues --   -0.66346  -0.66307  -0.64107  -0.61994  -0.59615
 Alpha  occ. eigenvalues --   -0.58949  -0.53811  -0.53791  -0.53461  -0.51153
 Alpha  occ. eigenvalues --   -0.51101  -0.49923  -0.49279  -0.46565  -0.46485
 Alpha  occ. eigenvalues --   -0.45424  -0.45142  -0.44264  -0.44203  -0.44163
 Alpha  occ. eigenvalues --   -0.44000  -0.43854  -0.43337  -0.43273  -0.42608
 Alpha  occ. eigenvalues --   -0.42360  -0.42210  -0.42129  -0.41913  -0.41852
 Alpha  occ. eigenvalues --   -0.41454  -0.41107  -0.40630  -0.39903  -0.39291
 Alpha  occ. eigenvalues --   -0.38780  -0.38727  -0.38033  -0.37783  -0.37078
 Alpha  occ. eigenvalues --   -0.37013  -0.36972  -0.36926  -0.36895  -0.36287
 Alpha  occ. eigenvalues --   -0.35751  -0.35612  -0.35515  -0.35272  -0.34547
 Alpha  occ. eigenvalues --   -0.34178  -0.33589  -0.33436  -0.33018  -0.32643
 Alpha  occ. eigenvalues --   -0.32387  -0.32113  -0.31961  -0.31944  -0.31326
 Alpha  occ. eigenvalues --   -0.29338  -0.29286  -0.29116  -0.29053  -0.28704
 Alpha  occ. eigenvalues --   -0.27331  -0.25951  -0.25779  -0.25490  -0.22525
 Alpha  occ. eigenvalues --   -0.20315  -0.18803  -0.13990
 Alpha virt. eigenvalues --   -0.05717  -0.02045   0.01542   0.01687   0.02950
 Alpha virt. eigenvalues --    0.03102   0.05392   0.06512   0.06679   0.07489
 Alpha virt. eigenvalues --    0.07504   0.08193   0.08223   0.08390   0.08485
 Alpha virt. eigenvalues --    0.08729   0.09668   0.09908   0.10334   0.10492
 Alpha virt. eigenvalues --    0.10885   0.11056   0.11688   0.11705   0.11891
 Alpha virt. eigenvalues --    0.12201   0.12557   0.13059   0.13330   0.13558
 Alpha virt. eigenvalues --    0.13641   0.14316   0.14419   0.14486   0.14853
 Alpha virt. eigenvalues --    0.15023   0.15399   0.15794   0.16756   0.16821
 Alpha virt. eigenvalues --    0.16937   0.17331   0.17407   0.17479   0.17834
 Alpha virt. eigenvalues --    0.17942   0.18300   0.18503   0.18810   0.19386
 Alpha virt. eigenvalues --    0.20261   0.20327   0.20468   0.21143   0.21234
 Alpha virt. eigenvalues --    0.21681   0.21732   0.21907   0.22133   0.22368
 Alpha virt. eigenvalues --    0.22767   0.23354   0.24069   0.24387   0.24479
 Alpha virt. eigenvalues --    0.25288   0.25659   0.26127   0.26344   0.26363
 Alpha virt. eigenvalues --    0.26655   0.28069   0.28328   0.29036   0.29304
 Alpha virt. eigenvalues --    0.30093   0.30644   0.32590   0.32889   0.34065
 Alpha virt. eigenvalues --    0.34296   0.35663   0.36972   0.38377   0.39281
 Alpha virt. eigenvalues --    0.39851   0.40083   0.40432   0.40947   0.41632
 Alpha virt. eigenvalues --    0.41815   0.42822   0.43448   0.43671   0.43927
 Alpha virt. eigenvalues --    0.44450   0.44955   0.45194   0.45551   0.46290
 Alpha virt. eigenvalues --    0.46435   0.47448   0.47561   0.47915   0.49619
 Alpha virt. eigenvalues --    0.49943   0.50239   0.50984   0.52028   0.53514
 Alpha virt. eigenvalues --    0.53517   0.54175   0.54485   0.54844   0.54900
 Alpha virt. eigenvalues --    0.55678   0.56094   0.56811   0.57403   0.57630
 Alpha virt. eigenvalues --    0.57887   0.58185   0.59083   0.59526   0.60053
 Alpha virt. eigenvalues --    0.60138   0.60164   0.60962   0.61001   0.61742
 Alpha virt. eigenvalues --    0.62449   0.62725   0.62836   0.63098   0.63423
 Alpha virt. eigenvalues --    0.63436   0.64192   0.64456   0.64610   0.65103
 Alpha virt. eigenvalues --    0.65314   0.65574   0.65654   0.65817   0.66077
 Alpha virt. eigenvalues --    0.66362   0.66645   0.66725   0.67024   0.67487
 Alpha virt. eigenvalues --    0.67703   0.68192   0.68252   0.68497   0.68792
 Alpha virt. eigenvalues --    0.69309   0.69374   0.69487   0.69869   0.69911
 Alpha virt. eigenvalues --    0.70027   0.70163   0.70707   0.70709   0.71051
 Alpha virt. eigenvalues --    0.71229   0.71430   0.71791   0.72062   0.72516
 Alpha virt. eigenvalues --    0.73022   0.73247   0.73624   0.73647   0.74006
 Alpha virt. eigenvalues --    0.74337   0.74536   0.74696   0.74817   0.74968
 Alpha virt. eigenvalues --    0.75984   0.76161   0.76175   0.76585   0.76851
 Alpha virt. eigenvalues --    0.77192   0.78045   0.78173   0.78398   0.79114
 Alpha virt. eigenvalues --    0.79133   0.79699   0.80570   0.80680   0.81028
 Alpha virt. eigenvalues --    0.81177   0.82124   0.82255   0.82699   0.83205
 Alpha virt. eigenvalues --    0.83208   0.83574   0.84009   0.84318   0.84745
 Alpha virt. eigenvalues --    0.84984   0.85729   0.86544   0.87513   0.88975
 Alpha virt. eigenvalues --    0.89072   0.90019   0.90434   0.90797   0.92029
 Alpha virt. eigenvalues --    0.92378   0.92801   0.92828   0.94702   0.94925
 Alpha virt. eigenvalues --    0.96197   0.97518   0.97577   0.99638   0.99703
 Alpha virt. eigenvalues --    1.00865   1.02803   1.03111   1.03673   1.04313
 Alpha virt. eigenvalues --    1.04447   1.05989   1.06871   1.06984   1.08022
 Alpha virt. eigenvalues --    1.08513   1.08592   1.10017   1.11159   1.12322
 Alpha virt. eigenvalues --    1.12352   1.12910   1.14368   1.15623   1.15774
 Alpha virt. eigenvalues --    1.16682   1.17736   1.18837   1.19153   1.19438
 Alpha virt. eigenvalues --    1.20324   1.20825   1.21083   1.21733   1.22777
 Alpha virt. eigenvalues --    1.23369   1.23806   1.24370   1.24748   1.25009
 Alpha virt. eigenvalues --    1.25532   1.27128   1.27923   1.28074   1.28540
 Alpha virt. eigenvalues --    1.29646   1.31184   1.31405   1.31513   1.32500
 Alpha virt. eigenvalues --    1.33901   1.33963   1.35613   1.36194   1.38698
 Alpha virt. eigenvalues --    1.41428   1.42607   1.43381   1.44107   1.45663
 Alpha virt. eigenvalues --    1.45804   1.49571   1.50416   1.51171   1.51964
 Alpha virt. eigenvalues --    1.52095   1.53044   1.53099   1.53244   1.53754
 Alpha virt. eigenvalues --    1.54396   1.54567   1.55312   1.55603   1.56063
 Alpha virt. eigenvalues --    1.56199   1.56652   1.56843   1.57736   1.57875
 Alpha virt. eigenvalues --    1.58047   1.58274   1.58832   1.58959   1.59162
 Alpha virt. eigenvalues --    1.60442   1.60781   1.60840   1.61524   1.61965
 Alpha virt. eigenvalues --    1.62041   1.62433   1.64196   1.64234   1.65285
 Alpha virt. eigenvalues --    1.65397   1.67388   1.67534   1.68246   1.69466
 Alpha virt. eigenvalues --    1.69560   1.70342   1.70522   1.71615   1.72965
 Alpha virt. eigenvalues --    1.73060   1.73399   1.73628   1.75400   1.75476
 Alpha virt. eigenvalues --    1.76513   1.76583   1.77446   1.77646   1.77843
 Alpha virt. eigenvalues --    1.78098   1.78841   1.79106   1.79436   1.79512
 Alpha virt. eigenvalues --    1.80226   1.80853   1.81177   1.81966   1.82257
 Alpha virt. eigenvalues --    1.82479   1.82630   1.83420   1.83438   1.83948
 Alpha virt. eigenvalues --    1.84242   1.84491   1.84690   1.85113   1.85164
 Alpha virt. eigenvalues --    1.85847   1.86328   1.86907   1.87381   1.87906
 Alpha virt. eigenvalues --    1.87947   1.88251   1.89129   1.89876   1.91007
 Alpha virt. eigenvalues --    1.91098   1.91242   1.91346   1.91582   1.92346
 Alpha virt. eigenvalues --    1.92933   1.92969   1.93703   1.93945   1.94155
 Alpha virt. eigenvalues --    1.94445   1.94769   1.95414   1.95720   1.95751
 Alpha virt. eigenvalues --    1.95940   1.96401   1.96930   1.97520   1.97653
 Alpha virt. eigenvalues --    1.98246   1.98751   1.99187   1.99619   2.00555
 Alpha virt. eigenvalues --    2.00827   2.01185   2.02107   2.02172   2.02581
 Alpha virt. eigenvalues --    2.03060   2.03489   2.03856   2.04468   2.04903
 Alpha virt. eigenvalues --    2.06275   2.07290   2.07793   2.08416   2.09126
 Alpha virt. eigenvalues --    2.10910   2.12622   2.14359   2.15364   2.16853
 Alpha virt. eigenvalues --    2.17202   2.17785   2.17944   2.18007   2.18386
 Alpha virt. eigenvalues --    2.18423   2.19154   2.19522   2.20080   2.20638
 Alpha virt. eigenvalues --    2.21076   2.21493   2.21909   2.22422   2.22869
 Alpha virt. eigenvalues --    2.23393   2.24230   2.24294   2.24786   2.25966
 Alpha virt. eigenvalues --    2.26185   2.27432   2.29190   2.29573   2.31087
 Alpha virt. eigenvalues --    2.32734   2.34852   2.35280   2.38035   2.38248
 Alpha virt. eigenvalues --    2.38993   2.39091   2.39529   2.41176   2.41254
 Alpha virt. eigenvalues --    2.41399   2.41682   2.42397   2.42545   2.43290
 Alpha virt. eigenvalues --    2.43559   2.44258   2.45648   2.46167   2.47000
 Alpha virt. eigenvalues --    2.48157   2.49251   2.49408   2.50952   2.51555
 Alpha virt. eigenvalues --    2.55782   2.55798   2.55936   2.56441   2.56569
 Alpha virt. eigenvalues --    2.56756   2.57082   2.57417   2.57477   2.60221
 Alpha virt. eigenvalues --    2.61209   2.62447   2.62476   2.63083   2.63129
 Alpha virt. eigenvalues --    2.63461   2.63845   2.64234   2.64326   2.64550
 Alpha virt. eigenvalues --    2.64724   2.64961   2.65178   2.65434   2.65494
 Alpha virt. eigenvalues --    2.67095   2.67433   2.70136   2.72722   2.73014
 Alpha virt. eigenvalues --    2.73487   2.74198   2.74376   2.77498   2.78523
 Alpha virt. eigenvalues --    2.84253   2.84645   2.84941   2.87005   2.87641
 Alpha virt. eigenvalues --    2.87663   2.88238   2.88998   2.89388   2.89754
 Alpha virt. eigenvalues --    2.90300   2.90465   2.91067   2.91378   2.91567
 Alpha virt. eigenvalues --    2.93201   2.94008   2.94697   2.94712   2.95250
 Alpha virt. eigenvalues --    2.95443   2.96297   2.96857   2.96965   2.97261
 Alpha virt. eigenvalues --    2.97573   2.97894   2.98847   2.99082   2.99981
 Alpha virt. eigenvalues --    3.01656   3.01826   3.02590   3.02651   3.03774
 Alpha virt. eigenvalues --    3.05527   3.06178   3.06852   3.07230   3.08251
 Alpha virt. eigenvalues --    3.08770   3.09154   3.09762   3.09909   3.11737
 Alpha virt. eigenvalues --    3.12079   3.13777   3.15139   3.20478   3.20686
 Alpha virt. eigenvalues --    3.31808   3.53659   3.73842   3.86299   3.86979
 Alpha virt. eigenvalues --   45.39310
          Condensed to atoms (all electrons):
 Mulliken charges:
               1
     1  O   -0.504000
     2  P    0.328285
     3  O   -0.155440
     4  N   -0.240559
     5  C    0.015739
     6  H    0.057873
     7  H    0.096029
     8  O   -0.504001
     9  P    0.328273
    10  C    0.052363
    11  C   -0.022764
    12  H    0.015944
    13  C    0.074212
    14  H    0.034359
    15  C   -0.022744
    16  H    0.015945
    17  C    0.052306
    18  C    0.015781
    19  H    0.057862
    20  H    0.096027
    21  C   -0.388911
    22  C   -0.371479
    23  C    0.087012
    24  H    0.003733
    25  H    0.017844
    26  H    0.026479
    27  C    0.065413
    28  H    0.011892
    29  H    0.029489
    30  H    0.034590
    31  Ru  -0.274477
    32  C    0.080390
    33  H    0.009742
    34  H    0.008870
    35  H    0.020091
    36  C    0.084733
    37  H    0.005158
    38  H    0.004654
    39  H    0.004321
    40  C    0.061998
    41  H    0.006777
    42  H    0.040956
    43  H    0.013267
    44  C    0.081168
    45  H    0.004436
    46  H    0.025535
    47  H    0.029380
    48  C   -0.388910
    49  C   -0.371482
    50  C    0.065414
    51  H    0.011889
    52  H    0.029494
    53  H    0.034586
    54  C    0.080379
    55  H    0.009742
    56  H    0.008878
    57  H    0.020093
    58  C    0.087024
    59  H    0.003729
    60  H    0.017837
    61  H    0.026472
    62  C    0.084729
    63  H    0.005157
    64  H    0.004654
    65  H    0.004322
    66  C    0.062006
    67  H    0.006783
    68  H    0.040972
    69  H    0.013260
    70  C    0.081174
    71  H    0.004436
    72  H    0.025535
    73  H    0.029367
    74  C    0.096360
    75  H    0.195779
    76  H    0.195771
 Sum of Mulliken charges =  -0.00000
 Mulliken charges with hydrogens summed into heavy atoms:
               1
     1  O   -0.308229
     2  P    0.328285
     3  O   -0.155440
     4  N   -0.240559
     5  C    0.169642
     8  O   -0.308222
     9  P    0.328273
    10  C    0.052363
    11  C   -0.006820
    13  C    0.108572
    15  C   -0.006799
    17  C    0.052306
    18  C    0.169669
    21  C   -0.388911
    22  C   -0.371479
    23  C    0.135068
    27  C    0.141385
    31  Ru  -0.274477
    32  C    0.119093
    36  C    0.098867
    40  C    0.122998
    44  C    0.140518
    48  C   -0.388910
    49  C   -0.371482
    50  C    0.141383
    54  C    0.119092
    58  C    0.135062
    62  C    0.098862
    66  C    0.123020
    70  C    0.140511
    74  C    0.096360
 Electronic spatial extent (au):  <R**2>=          13415.1862
 Charge=             -0.0000 electrons
 Dipole moment (field-independent basis, Debye):
    X=              0.0003    Y=             -6.7267    Z=             -0.0001  Tot=              6.7267
 Quadrupole moment (field-independent basis, Debye-Ang):
   XX=           -180.6430   YY=           -206.5405   ZZ=           -232.5871
   XY=             -0.0005   XZ=              7.5909   YZ=              0.0021
 Traceless Quadrupole moment (field-independent basis, Debye-Ang):
   XX=             25.9472   YY=              0.0497   ZZ=            -25.9969
   XY=             -0.0005   XZ=              7.5909   YZ=              0.0021
 Octapole moment (field-independent basis, Debye-Ang**2):
  XXX=              0.0073  YYY=           -124.0205  ZZZ=              0.0083  XYY=             -0.0115
  XXY=              6.1340  XXZ=              0.0010  XZZ=              0.0052  YZZ=             28.6927
  YYZ=             -0.0073  XYZ=             -4.3766
 Hexadecapole moment (field-independent basis, Debye-Ang**3):
 XXXX=         -10360.8541 YYYY=          -4182.5151 ZZZZ=          -3134.0757 XXXY=              0.0175
 XXXZ=             41.3532 YYYX=             -0.0123 YYYZ=             -0.0049 ZZZX=             11.9995
 ZZZY=              0.0030 XXYY=          -2429.6523 XXZZ=          -2247.9505 YYZZ=          -1274.3380
 XXYZ=              0.0104 YYXZ=             72.9930 ZZXY=              0.0205
 N-N= 4.526682909259D+03 E-N=-1.371145022362D+04  KE= 1.921500310854D+03
 1\1\GINC-NODE126\SP\RB3LYP TD-FC\def2SVP\C24H45N1O3P2Ru1\DO57CIG\16-Ja
 n-2024\0\\# td=(triplets,nstates=10,conver=3) b3lyp scrf=(smd,solvent=
 water) def2svp empiricaldispersion=gd3bj int=ultrafine scf=xqc\\tBut_R
 u_T_Interpol_struc_0\\0,1\O\P,1,3.2213436\O,1,3.7574357,2,73.2219684\N
 ,1,2.7774461,2,58.6946838,3,-116.485599,0\C,2,1.8530666,3,133.9101269,
 4,-39.915638,0\H,3,6.5422004,4,30.6906313,5,7.5022686,0\H,4,2.9714482,
 5,20.9607693,6,139.9035453,0\O,5,3.1089681,6,162.9424924,7,18.585408,0
 \P,6,6.135772,7,51.6830635,8,-19.5404027,0\C,7,2.1603565,8,84.2894563,
 9,-4.7974988,0\C,8,4.4627394,9,84.2643657,10,-10.1430141,0\H,9,6.26661
 21,10,9.512164,11,11.6839733,0\C,10,2.4402045,11,29.9599636,12,180.253
 2099,0\H,11,2.2025577,12,95.6233179,13,0.0963396,0\C,12,3.4288361,13,1
 4.8156987,14,179.8641467,0\H,13,2.1924074,14,96.2773558,15,0.0982074,0
 \C,14,3.4322146,15,12.9347724,16,179.4507315,0\C,15,2.5187191,16,87.55
 20373,17,-0.5482766,0\H,16,2.4310077,17,56.3072945,18,-12.1492381,0\H,
 17,2.160351,18,28.5541462,19,119.1955104,0\C,18,6.7586546,19,156.11030
 49,20,-173.9818246,0\C,19,6.8148699,20,39.6874545,21,-21.9617357,0\C,2
 0,7.1833487,21,12.3484071,22,-178.9835054,0\H,21,2.1490094,22,170.3744
 556,23,-30.9227382,0\H,22,4.8186142,23,12.8346521,24,129.3300449,0\H,2
 3,1.0984028,24,107.644892,25,117.4245384,0\C,24,2.6996817,25,99.246511
 6,26,-61.7292073,0\H,25,3.6608218,26,51.1761909,27,22.6389152,0\H,26,2
 .5620815,27,23.9452762,28,109.2243869,0\H,27,1.0973701,28,107.443645,2
 9,116.8981156,0\Ru,28,5.2945385,29,35.2853437,30,-99.5371318,0\C,29,3.
 4979762,30,51.4666609,31,58.3191252,0\H,30,3.0330352,31,89.5603451,32,
 -14.944218,0\H,31,5.4874883,32,10.8484558,33,141.2005269,0\H,32,1.0997
 801,33,107.3121043,34,116.5764222,0\C,33,5.3776753,34,43.5774595,35,-1
 01.8752371,0\H,34,4.9032528,35,122.9842271,36,-7.5925305,0\H,35,5.1312
 22,36,12.0555114,37,102.7138902,0\H,36,1.0973342,37,107.9910978,38,117
 .097623,0\C,37,2.6957177,38,100.4340362,39,-64.2109341,0\H,38,3.680668
 6,39,55.6644655,40,21.1968153,0\H,39,2.6314504,40,23.1307841,41,108.26
 1851,0\H,40,1.0981795,41,107.7029078,42,117.60617,0\C,41,2.7185162,42,
 98.3119072,43,-61.3169628,0\H,42,3.6729202,43,51.1131608,44,22.5971426
 ,0\H,43,2.5361454,44,24.0306483,45,108.7825855,0\H,44,1.0972704,45,107
 .3213392,46,116.9138328,0\C,45,8.9933067,46,79.4406833,47,-86.5245563,
 0\C,46,8.6086201,47,99.0137172,48,-16.5248281,0\C,47,9.6032377,48,8.51
 48402,49,-82.7503594,0\H,48,2.1578576,49,113.8565321,50,-8.6340568,0\H
 ,49,3.5336936,50,18.1443291,51,-168.399215,0\H,50,1.097371,51,107.4436
 442,52,116.8974398,0\C,51,2.8026739,52,97.0079574,53,-62.5221488,0\H,5
 2,3.7683851,53,52.5205931,54,21.5002813,0\H,53,2.6209859,54,23.2673538
 ,55,107.502564,0\H,54,1.0997794,55,107.3124326,56,116.5767088,0\C,55,2
 .6833379,56,100.2455856,57,-62.5148006,0\H,56,3.6758996,57,54.0488956,
 58,21.6936294,0\H,57,2.5490402,58,23.7017945,59,107.9132118,0\H,58,1.0
 984015,59,107.6450674,60,117.424641,0\C,59,5.6994603,60,76.881541,61,-
 58.3925618,0\H,60,6.6192676,61,63.3571822,62,1.3735439,0\H,61,4.604218
 8,62,12.5763054,63,31.696614,0\H,62,1.0973367,63,107.9922433,64,117.09
 93536,0\C,63,2.6957182,64,100.4345577,65,-64.213279,0\H,64,3.6806479,6
 5,55.6654222,66,21.1967111,0\H,65,2.6316687,66,23.1299581,67,108.26245
 08,0\H,66,1.0981798,67,107.7035665,68,117.6037247,0\C,67,2.7185384,68,
 98.3110271,69,-61.3110891,0\H,68,3.6729001,69,51.1069614,70,22.5991898
 ,0\H,69,2.5360389,70,24.0316777,71,108.7831969,0\H,70,1.097268,71,107.
 3206513,72,116.9146249,0\C,71,6.5471189,72,72.2883243,73,-64.3219597,0
 \H,72,5.903379,73,74.2538752,74,25.9892753,0\H,73,6.3849548,74,24.6771
 706,75,-131.079675,0\\Version=ES64L-G16RevB.01\State=1-A\HF=-1998.9803
 081\RMSD=4.773e-09\PG=C01 [X(C24H45N1O3P2Ru1)]\\@


 Happiness is a conscious choice, not an automatic response.
 -- Mildred Barthel
 Job cpu time:       0 days  7 hours 16 minutes 54.5 seconds.
 Elapsed time:       0 days  0 hours 18 minutes 25.4 seconds.
 File lengths (MBytes):  RWF=   4045 Int=      0 D2E=      0 Chk=    186 Scr=      1
 Normal termination of Gaussian 16 at Tue Jan 16 12:36:28 2024.
