76

  P  2.40197057 -0.20090846 -0.11595129
  N -0.04044897  1.45921631 -0.15882435
  C  2.17733334  1.27583969 -1.20888565
  H  3.10612478  1.85074223 -1.32119990
  H  1.92123654  0.84129103 -2.19029466
  O -0.12875478 -0.96401229 -1.98480497
  P -2.44071968 -0.13515224  0.13684107
  C  1.06424443  2.13120541 -0.68016983
  C  1.16231854  3.50754367 -0.65206157
  H  2.05672974  3.97084411 -1.07586899
  C  0.14089880  4.30056747 -0.07364864
  H  0.20891408  5.38860671 -0.04306836
  C -0.96971926  3.60888334  0.47411415
  H -1.80073084  4.15643107  0.92604959
  C -1.04018701  2.23183488  0.42903084
  C -2.23367698  1.49283672  0.97907409
  H -3.14469616  2.10416766  0.91803539
  H -2.08148034  1.24231457  2.04367527
 Ru -0.03508933 -0.74962368  0.09069528
  H  0.61546384 -1.51653104 -2.24484153
  C -3.27141779  0.23599997 -1.53816711
  C -3.61218542 -1.13515013  1.26293065
  C  3.54723871 -1.37553463 -1.09542378
  C  3.27222889  0.39927306  1.47021736
  C  2.46834515  1.58175477  2.04794922
  H  2.55802394  2.47426279  1.41725506
  H  1.40198304  1.37104178  2.17992624
  H  2.88721463  1.82340038  3.03806970
  C  3.32426168 -0.74832939  2.49931268
  H  3.47907537 -0.32023488  3.50275655
  H  2.40278193 -1.34274929  2.53038943
  H  4.15599680 -1.43398589  2.30279813
  C  4.69639881  0.90989877  1.20272225
  H  5.08581452  1.35160088  2.13514954
  H  5.38327659  0.10583183  0.91060620
  H  4.71529863  1.69368728  0.43111135
  C  4.66309100 -0.59420502 -1.80952707
  H  5.30144263 -0.02641452 -1.12425340
  H  5.30372986 -1.31834303 -2.34019151
  H  4.25631216  0.09632294 -2.56203165
  C  4.14315936 -2.43665808 -0.15977438
  H  4.64116199 -3.20391141 -0.77462940
  H  4.89691987 -2.02046354  0.51949403
  H  3.36618429 -2.93790749  0.43714267
  C  2.73061980 -2.10504229 -2.17132397
  H  1.93832869 -2.72687228 -1.73148718
  H  2.30275816 -1.40856031 -2.90629187
  H  3.40829661 -2.77690345 -2.72214484
  C -3.26040206 -1.02441531 -2.42059061
  H -3.59574844 -0.74381132 -3.43330447
  H -2.24707494 -1.43885064 -2.49305165
  H -3.94226513 -1.79964774 -2.05275071
  C -4.71141539  0.74266649 -1.37116786
  H -5.07785187  1.06256704 -2.36105955
  H -5.39244154 -0.03728034 -1.00740401
  H -4.77434863  1.61176188 -0.69945330
  C -2.46050963  1.34246686 -2.23826724
  H -2.51280663  2.29606018 -1.69534125
  H -1.40787909  1.06813706 -2.36020429
  H -2.89903182  1.50201891 -3.23704347
  C -2.81425167 -1.67136051  2.45963049
  H -2.00237001 -2.34238760  2.14958060
  H -2.39704584 -0.86276388  3.07281332
  H -3.50271443 -2.24795039  3.09864283
  C -4.74959966 -0.26002883  1.81704411
  H -5.38811675  0.16582464  1.03601909
  H -5.38598218 -0.88998295  2.46092859
  H -4.36461125  0.56009951  2.43993143
  C -4.18181905 -2.33547709  0.49370179
  H -4.70493836 -2.99231053  1.20765817
  H -4.90880715 -2.03549513 -0.27156177
  H -3.38677425 -2.92669423  0.01436156
  O -0.18340341 -2.73956690  0.07006471
  C  0.02800681 -0.64832056  1.92554358
  H -0.24588918 -2.88995701 -0.88975529
  O  0.08402036 -0.59320762  3.08455437