76

  P  2.40261698 -0.20291240 -0.11518326
  N -0.03879651  1.46205009 -0.15736550
  C  2.17796287  1.27563312 -1.20614265
  H  3.10680115  1.85061334 -1.31754230
  H  1.92198843  0.84323416 -2.18850710
  O -0.13110079 -0.97802970 -1.98416491
  P -2.44132264 -0.13683221  0.13765252
  C  1.06455380  2.13173438 -0.67880236
  C  1.16161756  3.50895783 -0.65429299
  H  2.05544597  3.97294772 -1.07842050
  C  0.13858284  4.30045754 -0.07859253
  H  0.20519960  5.38871686 -0.05041875
  C -0.97159830  3.61017155  0.46959932
  H -1.80310172  4.15816427  0.91993064
  C -1.03989776  2.23212570  0.42692775
  C -2.23261457  1.49220715  0.97822094
  H -3.14352295  2.10376697  0.91820331
  H -2.07843700  1.24283386  2.04277490
 Ru -0.03500068 -0.76449502  0.09149799
  H  0.61698236 -1.52440346 -2.24612059
  C -3.27194840  0.23542312 -1.53739997
  C -3.61671326 -1.13120282  1.26490013
  C  3.55144139 -1.37196678 -1.09731104
  C  3.27237114  0.39755012  1.47135628
  C  2.46459887  1.57626913  2.05130882
  H  2.55088487  2.47029959  1.42220462
  H  1.39907739  1.36117808  2.18328167
  H  2.88289371  1.81797723  3.04166823
  C  3.32795612 -0.75145568  2.49867422
  H  3.48284586 -0.32456434  3.50263660
  H  2.40771456 -1.34777993  2.52968515
  H  4.16098128 -1.43502362  2.30033460
  C  4.69499100  0.91282145  1.20482410
  H  5.08341243  1.35371636  2.13807350
  H  5.38403837  0.11123389  0.91094446
  H  4.71176564  1.69824608  0.43482143
  C  4.66558801 -0.58739487 -1.81042856
  H  5.30234111 -0.01862880 -1.12445076
  H  5.30821374 -1.30940760 -2.34161466
  H  4.25741593  0.10285300 -2.56243267
  C  4.14988896 -2.43348885 -0.16374272
  H  4.64898337 -3.19894537 -0.77997122
  H  4.90323427 -2.01683778  0.51573238
  H  3.37417883 -2.93701995  0.43291656
  C  2.73578090 -2.10128797 -2.17410153
  H  1.94605088 -2.72666642 -1.73465919
  H  2.30443079 -1.40420757 -2.90650142
  H  3.41470011 -2.76957091 -2.72776180
  C -3.26429244 -1.02612295 -2.41831662
  H -3.59898315 -0.74600992 -3.43139324
  H -2.25214042 -1.44351031 -2.49040363
  H -3.94815549 -1.79910227 -2.04943872
  C -4.71049194  0.74645908 -1.37166132
  H -5.07598021  1.06591655 -2.36207101
  H -5.39378017 -0.03099117 -1.00676623
  H -4.77112587  1.61673828 -0.70125987
  C -2.45759680  1.33842074 -2.23900263
  H -2.50821732  2.29338821 -1.69832900
  H -1.40544956  1.06136248 -2.35941263
  H -2.89449003  1.49701899 -3.23865385
  C -2.82008134 -1.66841321  2.46202634
  H -2.01124110 -2.34329709  2.15234902
  H -2.39867166 -0.86046092  3.07322819
  H -3.51023105 -2.24097653  3.10286609
  C -4.75180636 -0.25260620  1.81814453
  H -5.38829997  0.17537848  1.03661148
  H -5.39079198 -0.88047113  2.46151413
  H -4.36476141  0.56628850  2.44137922
  C -4.18963867 -2.33090038  0.49713558
  H -4.71424415 -2.98575401  1.21183982
  H -4.91603691 -2.02989477 -0.26829557
  H -3.39619763 -2.92459207  0.01816456
  O -0.17671465 -2.75825423  0.06837258
  C  0.02966753 -0.66382376  1.92564080
  H -0.23959421 -2.90535859 -0.89158133
  O  0.08587045 -0.60949233  3.08507221