76

  P  2.40246027 -0.20241106 -0.11537405
  N -0.03920713  1.46134048 -0.15773119
  C  2.17780816  1.27568426 -1.20682898
  H  3.10663457  1.85064531 -1.31845815
  H  1.92180258  0.84274675 -2.18895446
  O -0.13051526 -0.97452194 -1.98431734
  P -2.44117757 -0.13641234  0.13745196
  C  1.06447854  2.13160100 -0.67914584
  C  1.16179362  3.50860412 -0.65373707
  H  2.05576767  3.97242231 -1.07778416
  C  0.13916121  4.30048514 -0.07735941
  H  0.20612690  5.38869016 -0.04858439
  C -0.97112878  3.60984951  0.47072650
  H -1.80250921  4.15773157  0.92145880
  C -1.03997068  2.23205218  0.42745266
  C -2.23288379  1.49236504  0.97843536
  H -3.14381858  2.10386959  0.91816098
  H -2.07920321  1.24270505  2.04300196
 Ru -0.03502316 -0.76077679  0.09130595
  H  0.61660708 -1.52243403 -2.24579388
  C -3.27181900  0.23556755 -1.53759064
  C -3.61559184 -1.13219102  1.26440791
  C  3.55039645 -1.37285886 -1.09684132
  C  3.27234213  0.39798123  1.47107188
  C  2.46554079  1.57764195  2.05047099
  H  2.55267422  2.47129340  1.42096902
  H  1.39980784  1.36364452  2.18244694
  H  2.88398049  1.81933467  3.04077013
  C  3.32704060 -0.75067514  2.49883413
  H  3.48191192 -0.32348332  3.50266708
  H  2.40648945 -1.34652399  2.52986261
  H  4.15974393 -1.43476527  2.30094939
  C  4.69535018  0.91209265  1.20429669
  H  5.08402066  1.35318978  2.13734038
  H  5.38385597  0.10988478  0.91085666
  H  4.71265530  1.69710922  0.43389174
  C  4.66496830 -0.58909601 -1.81020735
  H  5.30212208 -0.02057305 -1.12440665
  H  5.30709742 -1.31163996 -2.34126460
  H  4.25714258  0.10122206 -2.56233563
  C  4.14821455 -2.43428197 -0.16275388
  H  4.64703592 -3.20018750 -0.77864029
  H  4.90166455 -2.01774467  0.51666839
  H  3.37218912 -2.93724366  0.43397128
  C  2.73449522 -2.10222713 -2.17340821
  H  1.94412501 -2.72671998 -1.73386516
  H  2.30401548 -1.40529440 -2.90644968
  H  3.41310478 -2.77140499 -2.72636082
  C -3.26332281 -1.02569697 -2.41888394
  H -3.59817544 -0.74546081 -3.43187049
  H -2.25087656 -1.44234774 -2.49106322
  H -3.94668779 -1.79923941 -2.05026620
  C -4.71072699  0.74551327 -1.37153858
  H -5.07645030  1.06508209 -2.36181946
  H -5.39345174 -0.03256115 -1.00692692
  H -4.77193624  1.61549743 -0.70080890
  C -2.45832505  1.33943275 -2.23881704
  H -2.50936513  2.29405750 -1.69758011
  H -1.40605635  1.06305502 -2.35960740
  H -2.89562341  1.49827073 -3.23825063
  C -2.81863716 -1.66915242  2.46142909
  H -2.00903469 -2.34307367  2.15165959
  H -2.39827906 -0.86103710  3.07312742
  H -3.50836858 -2.24272304  3.10181096
  C -4.75126685 -0.25446212  1.81786759
  H -5.38826525  0.17299110  1.03646034
  H -5.38960400 -0.88285007  2.46136458
  H -4.36473637  0.56474107  2.44101641
  C -4.18769334 -2.33204643  0.49627572
  H -4.71192969 -2.98739532  1.21079182
  H -4.91423739 -2.03129606 -0.26911501
  H -3.39385000 -2.92512019  0.01721380
  O -0.17838031 -2.75358556  0.06879824
  C  0.02925365 -0.65994841  1.92562527
  H -0.24116089 -2.90150987 -0.89112069
  O  0.08541039 -0.60542184  3.08495154