76

  P  2.40180082 -0.20040804 -0.11614538
  N -0.04086621  1.45850981 -0.15918736
  C  2.17717153  1.27589220 -1.20957042
  H  3.10595155  1.85077490 -1.32211185
  H  1.92104506  0.84080804 -2.19074078
  O -0.12816669 -0.96051372 -1.98497767
  P -2.44055950 -0.13473206  0.13663434
  C  1.06416365  2.13107508 -0.68050889
  C  1.16249249  3.50719043 -0.65150028
  H  2.05704949  3.97031742 -1.07522832
  C  0.14147890  4.30059474 -0.07240767
  H  0.20984501  5.38857775 -0.04122506
  C -0.96924905  3.60856124  0.47524559
  H -1.80013771  4.15599672  0.92758215
  C -1.04025826  2.23176351  0.42955816
  C -2.23393653  1.49299325  0.97928550
  H -3.14498556  2.10426372  0.91799399
  H -2.08223220  1.24218298  2.04389709
 Ru -0.03511098 -0.74590652  0.09048014
  H  0.61507693 -1.51456520 -2.24453335
  C -3.27127971  0.23614377 -1.53836080
  C -3.61103591 -1.13613465  1.26243801
  C  3.54617847 -1.37642641 -1.09494851
  C  3.27218240  0.39970322  1.46993203
  C  2.46927281  1.58312388  2.04710579
  H  2.55980105  2.47524862  1.41601461
  H  1.40270272  1.37350690  2.17908044
  H  2.88828393  1.82475349  3.03716743
  C  3.32332459 -0.74754602  2.49947177
  H  3.47811826 -0.31915018  3.50278567
  H  2.40153535 -1.34148868  2.53056315
  H  4.15473604 -1.43372459  2.30341581
  C  4.69673871  0.90916504  1.20219999
  H  5.08640219  1.35106825  2.13442203
  H  5.38307273  0.10447901  0.91052698
  H  4.71617118  1.69254288  0.43018738
  C  4.66245915 -0.59590991 -1.80929478
  H  5.30120868 -0.02836462 -1.12419535
  H  5.30260110 -1.32057944 -2.33982619
  H  4.25603189  0.09468776 -2.56192607
  C  4.14146358 -2.43744903 -0.15877690
  H  4.63919340 -3.20515190 -0.77328640
  H  4.89532640 -2.02136923  0.52044176
  H  3.36417071 -2.93812630  0.43820219
  C  2.72932182 -2.10597992 -2.17062781
  H  1.93639030 -2.72692025 -1.73069592
  H  2.30233523 -1.40965079 -2.90623842
  H  3.40668644 -2.77873503 -2.72073519
  C -3.25942454 -1.02398691 -2.42116110
  H -3.59493814 -0.74326085 -3.43378323
  H -2.24580440 -1.43768187 -2.49371771
  H -3.94078439 -1.79978288 -2.05357960
  C -4.71163926  0.74171440 -1.37104350
  H -5.07831614  1.06172476 -2.36080455
  H -5.39209650 -0.03885651 -1.00756143
  H -4.77514648  1.61051233 -0.69900059
  C -2.46123776  1.34347753 -2.23808636
  H -2.51395313  2.29672595 -1.69459762
  H -1.40848747  1.06983247 -2.36040748
  H -2.90017071  1.50326588 -3.23664196
  C -2.81277222 -1.67209332  2.45902865
  H -2.00013335 -2.34215364  2.14888401
  H -2.39661629 -0.86333884  3.07270466
  H -3.50080749 -2.24968873  3.09758587
  C -4.74902771 -0.26188399  1.81677205
  H -5.38805245  0.16343442  1.03587605
  H -5.38475562 -0.89235920  2.46078747
  H -4.36455286  0.55855260  2.43957088
  C -4.17984822 -2.33661812  0.49284569
  H -4.70259198 -2.99394598  1.20661706
  H -4.90698654 -2.03689322 -0.27237352
  H -3.38440477 -2.92721547  0.01341082
  O -0.18508641 -2.73488975  0.07048359
  C  0.02758947 -0.64444402  1.92550459
  H -0.24747464 -2.88610384 -0.88930557
  O  0.08355374 -0.58913532  3.08441020