76

  P  2.40162779 -0.19990783 -0.11634032
  N -0.04128510  1.45780409 -0.15954963
  C  2.17700796  1.27594507 -1.21025480
  H  3.10577669  1.85080778 -1.32302279
  H  1.92085219  0.84032622 -2.19118660
  O -0.12757798 -0.95701752 -1.98515545
  P -2.44039554 -0.13431183  0.13642604
  C  1.06408152  2.13094553 -0.68084676
  C  1.16266596  3.50683730 -0.65093751
  H  2.05736880  3.96979042 -1.07458640
  C  0.14205950  4.30062192 -0.07116455
  H  0.21077691  5.38854820 -0.03937929
  C -0.96877862  3.60823909  0.47637823
  H -1.79954439  4.15556192  0.92911595
  C -1.04032907  2.23169267  0.43008615
  C -2.23419363  1.49314940  0.97949617
  H -3.14527337  2.10435813  0.91795285
  H -2.08298045  1.24205062  2.04411760
 Ru -0.03513242 -0.74218965  0.09025918
  H  0.61468710 -1.51260032 -2.24422982
  C -3.27113946  0.23628738 -1.53855527
  C -3.60987939 -1.13711824  1.26194525
  C  3.54511437 -1.37731812 -1.09447188
  C  3.27213154  0.40013319  1.46964643
  C  2.47019689  1.58449210  2.04626092
  H  2.56157511  2.47623248  1.41477288
  H  1.40341972  1.37597173  2.17823181
  H  2.88934885  1.82610557  3.03626407
  C  3.32238209 -0.74676189  2.49963063
  H  3.47715534 -0.31806448  3.50281442
  H  2.40028341 -1.34022684  2.53073591
  H  4.15346943 -1.43346248  2.30403420
  C  4.69707377  0.90843011  1.20167897
  H  5.08698471  1.35053415  2.13369587
  H  5.38286349  0.10312531  0.91044988
  H  4.71703944  1.69139662  0.42926478
  C  4.66182424 -0.59761578 -1.80905975
  H  5.30097098 -0.03031622 -1.12413384
  H  5.30146922 -1.32281690 -2.33945708
  H  4.25574989  0.09305147 -2.56181838
  C  4.13976241 -2.43823943 -0.15777726
  H  4.63721947 -3.20639198 -0.77194038
  H  4.89372695 -2.02227461  0.52139242
  H  3.36215112 -2.93834388  0.43926290
  C  2.72802074 -2.10691717 -2.16993096
  H  1.93444875 -2.72696681 -1.72990537
  H  2.30191038 -1.41074219 -2.90618456
  H  3.40507250 -2.78056600 -2.71932337
  C -3.25844505 -1.02355795 -2.42173241
  H -3.59412719 -0.74271008 -3.43426241
  H -2.24453221 -1.43651160 -2.49438539
  H -3.93930040 -1.79991754 -2.05440885
  C -4.71186032  0.74076071 -1.37091878
  H -5.07877894  1.06088047 -2.36054873
  H -5.39174729 -0.04043425 -1.00771806
  H -4.77594118  1.60926057 -0.69854748
  C -2.46196586  1.34448782 -2.23790669
  H -2.51509928  2.29739080 -1.69385535
  H -1.40909624  1.07152853 -2.36061280
  H -2.90131095  1.50451158 -3.23624092
  C -2.81128396 -1.67282452  2.45842565
  H -1.99788916 -2.34191704  2.14818563
  H -2.39617750 -0.86391348  3.07259401
  H -3.49888945 -2.25142498  3.09652844
  C -4.74844764 -0.26373894  1.81650119
  H -5.38798075  0.16104352  1.03573502
  H -5.38351940 -0.89473472  2.46064844
  H -4.36448612  0.55700587  2.43921088
  C -4.17787105 -2.33775789  0.49199051
  H -4.70023766 -2.99557995  1.20557768
  H -4.90516068 -2.03829050 -0.27318335
  H -3.38202987 -2.92773499  0.01246006
  O -0.18677369 -2.73021043  0.07090094
  C  0.02717127 -0.64056719  1.92545968
  H -0.24906475 -2.88224955 -0.88885849
  O  0.08308548 -0.58506258  3.08426011