76

  P  2.40213706 -0.20140910 -0.11575805
  N -0.04003337  1.45992359 -0.15846064
  C  2.17749339  1.27578754 -1.20820049
  H  3.10629637  1.85070974 -1.32028696
  H  1.92142662  0.84177516 -2.18984824
  O -0.12934224 -0.96751320 -1.98463736
  P -2.44087608 -0.13557235  0.13704624
  C  1.06432384  2.13133651 -0.67982961
  C  1.16214409  3.50789704 -0.65262142
  H  2.05640954  3.97137050 -1.07650847
  C  0.14031916  4.30054011 -0.07488754
  H  0.20798411  5.38863509 -0.04490929
  C -0.97018928  3.60920542  0.47298386
  H -1.80132379  4.15686499  0.92451822
  C -1.04011532  2.23190677  0.42850417
  C -2.23341501  1.49267983  0.97886193
  H -3.14440519  2.10406994  0.91807702
  H -2.08072489  1.24244543  2.04345214
 Ru -0.03506748 -0.75334112  0.09090462
  H  0.61584783 -1.51849780 -2.24515434
  C -3.27155370  0.23585599 -1.53797420
  C -3.61332792 -1.13416468  1.26342317
  C  3.54829512 -1.37464278 -1.09589768
  C  3.27227101  0.39884268  1.47050243
  C  2.46741393  1.58038476  2.04879121
  H  2.55624376  2.47327499  1.41849426
  H  1.40126066  1.36857636  2.18076925
  H  2.88614095  1.82204623  3.03897089
  C  3.32519338 -0.74911202  2.49915337
  H  3.48002668 -0.32131862  3.50272707
  H  2.40402313 -1.34400870  2.53021476
  H  4.15725169 -1.43424643  2.30218116
  C  4.69605409  0.91063129  1.20324578
  H  5.08522170  1.35213203  2.13587842
  H  5.38347509  0.10718373  0.91068754
  H  4.71442180  1.69482981  0.43203672
  C  4.66371980 -0.59250107 -1.80975659
  H  5.30167285 -0.02446590 -1.12430797
  H  5.30485548 -1.31610766 -2.34055301
  H  4.25659070  0.09795705 -2.56213511
  C  4.14484977 -2.43586659 -0.16076970
  H  4.64312525 -3.20267051 -0.77596938
  H  4.89850737 -2.01955755  0.51854922
  H  3.36819187 -2.93768743  0.43608434
  C  2.73191468 -2.10410428 -2.17201942
  H  1.94026392 -2.72682291 -1.73227915
  H  2.30317918 -1.40747076 -2.90634490
  H  3.40990305 -2.77507126 -2.72355233
  C -3.26137762 -1.02484313 -2.42002092
  H -3.59655809 -0.74436149 -3.43282609
  H -2.24834381 -1.44001788 -2.49238723
  H -3.94374261 -1.79951213 -2.05192219
  C -4.71118872  0.74361699 -1.37129184
  H -5.07738614  1.06340735 -2.36131372
  H -5.39278242 -0.03570572 -1.00724580
  H -4.77354763  1.61300924 -0.69990560
  C -2.45978147  1.34145583 -2.23844933
  H -2.51165979  2.29539351 -1.69608622
  H -1.40727111  1.06644234 -2.36000322
  H -2.89789431  1.50077071 -3.23744543
  C -2.81572232 -1.67062608  2.46023117
  H -2.00459913 -2.34261892  2.15027538
  H -2.39746615 -0.86218859  3.07291999
  H -3.50461026 -2.24620999  3.09969933
  C -4.75016350 -0.25817345  1.81731739
  H -5.38817365  0.16821416  1.03616415
  H -5.38719910 -0.88760600  2.46107181
  H -4.36466129  0.56164656  2.44029252
  C -4.18378352 -2.33433479  0.49455883
  H -4.70727678 -2.99067359  1.20870100
  H -4.91062250 -2.03409624 -0.27074810
  H -3.38913829 -2.92617127  0.01531231
  O -0.18172471 -2.74424191  0.06964424
  C  0.02842329 -0.65219681  1.92557668
  H -0.24430839 -2.89380908 -0.89020770
  O  0.08448534 -0.59727948  3.08469264