76

  P  2.40230030 -0.20190996 -0.11556564
  N -0.03961942  1.46063164 -0.15809624
  C  2.17765167  1.27573573 -1.20751493
  H  3.10646630  1.85067744 -1.31937304
  H  1.92161531  0.84226041 -2.18940151
  O -0.12992907 -0.97101643 -1.98447482
  P -2.44102871 -0.13599239  0.13724987
  C  1.06440189  2.13146837 -0.67948827
  C  1.16196913  3.50825052 -0.65317990
  H  2.05608885  3.97189656 -1.07714684
  C  0.13973997  4.30051266 -0.07612444
  H  0.20705505  5.38866291 -0.04674793
  C -0.97065911  3.60952747  0.47185466
  H -1.80191657  4.15729848  0.92298798
  C -1.04004321  2.23197921  0.42797812
  C -2.23315061  1.49252260  0.97864902
  H -3.14411266  2.10397058  0.91811889
  H -2.07996584  1.24257558  2.04322771
 Ru -0.03504542 -0.75705883  0.09110817
  H  0.61622891 -1.52046547 -2.24547180
  C -3.27168743  0.23571185 -1.53778205
  C -3.61446339 -1.13317831  1.26391559
  C  3.54934769 -1.37375086 -1.09637019
  C  3.27230875  0.39841208  1.47078727
  C  2.46647914  1.57901383  2.04963179
  H  2.55446052  2.47228520  1.41973224
  H  1.40053559  1.36611061  2.18160947
  H  2.88506291  1.82069100  3.03987103
  C  3.32611969 -0.74989393  2.49899385
  H  3.48097220 -0.32240142  3.50269724
  H  2.40525897 -1.34526692  2.53003915
  H  4.15850073 -1.43450621  2.30156491
  C  4.69570454  0.91136259  1.20377058
  H  5.08462375  1.35266167  2.13660870
  H  5.38366821  0.10853472  0.91077102
  H  4.71354068  1.69597046  0.43296351
  C  4.66434557 -0.59079808 -1.80998335
  H  5.30189933 -0.02251874 -1.12435905
  H  5.30597800 -1.31387330 -2.34091071
  H  4.25686750  0.09959008 -2.56223644
  C  4.14653483 -2.43507455 -0.16176287
  H  4.64508322 -3.20142921 -0.77730635
  H  4.90008893 -2.01865126  0.51760734
  H  3.37019347 -2.93746615  0.43502721
  C  2.73320648 -2.10316590 -2.17271417
  H  1.94219603 -2.72677214 -1.73307181
  H  2.30359828 -1.40638212 -2.90639751
  H  3.41150577 -2.77323844 -2.72495766
  C -3.26235120 -1.02527036 -2.41945203
  H -3.59736709 -0.74491133 -3.43234810
  H -2.24961102 -1.44118359 -2.49172442
  H -3.94521683 -1.79937602 -2.05109402
  C -4.71095925  0.74456591 -1.37141541
  H -5.07691894  1.06424569 -2.36156702
  H -5.39311915 -0.03413266 -1.00708678
  H -4.77274350  1.61425442 -0.70035748
  C -2.45905327  1.34044445 -2.23863260
  H -2.51051262  2.29472594 -1.69683251
  H -1.40666353  1.06474832 -2.35980426
  H -2.89675817  1.49952131 -3.23784782
  C -2.81718415 -1.66989005  2.46083070
  H -2.00682069 -2.34284761  2.15096838
  H -2.39787723 -0.86161300  3.07302469
  H -3.50649498 -2.24446753  3.10075538
  C -4.75071923 -0.25631788  1.81759187
  H -5.38822315  0.17060299  1.03631123
  H -5.38840638 -0.88522837  2.46121714
  H -4.36470299  0.56319375  2.44065418
  C -4.18574162 -2.33319124  0.49541681
  H -4.70960723 -2.98903519  1.20974555
  H -4.91243259 -2.03269655 -0.26993252
  H -3.39149688 -2.92564659  0.01626305
  O -0.18005034 -2.74891479  0.06922210
  C  0.02883890 -0.65607276  1.92560391
  H -0.24273229 -2.89766003 -0.89066282
  O  0.08494869 -0.60135089  3.08482502