76

  P  2.40277045 -0.20341398 -0.11499328
  N -0.03838756  1.46276047 -0.15699921
  C  2.17811577  1.27558229 -1.20545593
  H  3.10696604  1.85058154 -1.31662550
  H  1.92217286  0.84372261 -2.18805942
  O -0.13168567 -0.98153967 -1.98401752
  P -2.44146394 -0.13725198  0.13785156
  C  1.06462765  2.13186852 -0.67845786
  C  1.16144092  3.50931165 -0.65484772
  H  2.05512372  3.97347280 -1.07905591
  C  0.13800485  4.30042987 -0.07982387
  H  0.20427315  5.38874301 -0.05225110
  C -0.97206769  3.61049359  0.46847308
  H -1.80369411  4.15859658  0.91840342
  C -1.03982444  2.23219978  0.42640338
  C -2.23234295  1.49204895  0.97800578
  H -3.14322579  2.10366274  0.91824585
  H -2.07766722  1.24296205  2.04254654
 Ru -0.03497800 -0.76821348  0.09168430
  H  0.61735475 -1.52637373 -2.24645191
  C -3.27207563  0.23527857 -1.53721003
  C -3.61782765 -1.13021372  1.26539226
  C  3.55248253 -1.37107462 -1.09777937
  C  3.27239579  0.39711873  1.47164048
  C  2.46365339  1.57489533  2.05214531
  H  2.54909247  2.46930376  1.42343906
  H  1.39834426  1.35871126  2.18411368
  H  2.88180256  1.81661864  3.04256533
  C  3.32886626 -0.75223557  2.49851414
  H  3.48377400 -0.32564452  3.50260581
  H  2.40893432 -1.34903476  2.52950677
  H  4.16221279 -1.43528128  2.29972055
  C  4.69462702  0.91354899  1.20535285
  H  5.08279908  1.35424136  2.13880806
  H  5.38421542  0.11258204  0.91103445
  H  4.71087172  1.69938103  0.43575260
  C  4.66620468 -0.58569464 -1.81064698
  H  5.30255641 -0.01668599 -1.12449136
  H  5.30932697 -1.30717621 -2.34196091
  H  4.25768755  0.10448292 -2.56252755
  C  4.15155806 -2.43269518 -0.16472939
  H  4.65092558 -3.19770283 -0.78129914
  H  4.90479808 -2.01593060  0.51479931
  H  3.37616263 -2.93679505  0.43186304
  C  2.73706354 -2.10034843 -2.17479413
  H  1.94797367 -2.72661147 -1.73545390
  H  2.30484420 -1.40312165 -2.90655272
  H  3.41629177 -2.76773618 -2.72916062
  C -3.26526010 -1.02654828 -2.41775008
  H -3.59979021 -0.74655863 -3.43091635
  H -2.25340260 -1.44467128 -2.48974564
  H -3.94961992 -1.79896461 -2.04861158
  C -4.71025411  0.74740334 -1.37178362
  H -5.07550868  1.06674911 -2.36232165
  H -5.39410447 -0.02942272 -1.00660469
  H -4.77031238  1.61797698 -0.70171035
  C -2.45686854  1.33740845 -2.23918938
  H -2.50706920  2.29271808 -1.69907916
  H -1.40484318  1.05967071 -2.35921993
  H -2.89335804  1.49576612 -3.23905747
  C -2.82151670 -1.66767243  2.46262246
  H -2.01343993 -2.34351789  2.15303668
  H -2.39905502 -0.85988445  3.07332700
  H -3.51208238 -2.23922802  3.10392077
  C -4.75233778 -0.25075012  1.81842272
  H -5.38832731  0.17776512  1.03676467
  H -5.39197032 -0.87809157  2.46166581
  H -4.36477815  0.56783602  2.44174262
  C -4.19157759 -2.32975308  0.49799639
  H -4.71655059 -2.98411127  1.21288953
  H -4.91783112 -2.02849270 -0.26747421
  H -3.39853975 -2.92406222  0.01911532
  O -0.17505339 -2.76292083  0.06794506
  C  0.03008055 -0.66769881  1.92565050
  H -0.23803227 -2.90920621 -0.89204478
  O  0.08632888 -0.61356235  3.08518705