 Entering Gaussian System, Link 0=g16
 Input=A_Ru_Cis_straight_CO_TDDFT_B3LYP_def2svp_smd_water_S_Sing_to_Sing.gjf
 Output=A_Ru_Cis_straight_CO_TDDFT_B3LYP_def2svp_smd_water_S_Sing_to_Sing.log
 Initial command:
 /cluster/apps/gaussian/g16_c02/g16/l1.exe "/beegfs/do57cig/gauss2091796/Gau-2384410.inp" -scrdir="/beegfs/do57cig/gauss2091796/"
 Default CPUs for threads: 0-35
 Default is to use a total of  36 processors:
                               36 via shared-memory
                                1 via Linda
 Entering Link 1 = /cluster/apps/gaussian/g16_c02/g16/l1.exe PID=   2384411.
  
 Copyright (c) 1988-2021, Gaussian, Inc.  All Rights Reserved.
  
 This is part of the Gaussian(R) 16 program.  It is based on
 the Gaussian(R) 09 system (copyright 2009, Gaussian, Inc.),
 the Gaussian(R) 03 system (copyright 2003, Gaussian, Inc.),
 the Gaussian(R) 98 system (copyright 1998, Gaussian, Inc.),
 the Gaussian(R) 94 system (copyright 1995, Gaussian, Inc.),
 the Gaussian 92(TM) system (copyright 1992, Gaussian, Inc.),
 the Gaussian 90(TM) system (copyright 1990, Gaussian, Inc.),
 the Gaussian 88(TM) system (copyright 1988, Gaussian, Inc.),
 the Gaussian 86(TM) system (copyright 1986, Carnegie Mellon
 University), and the Gaussian 82(TM) system (copyright 1983,
 Carnegie Mellon University). Gaussian is a federally registered
 trademark of Gaussian, Inc.
  
 This software contains proprietary and confidential information,
 including trade secrets, belonging to Gaussian, Inc.
  
 This software is provided under written license and may be
 used, copied, transmitted, or stored only in accord with that
 written license.
  
 The following legend is applicable only to US Government
 contracts under FAR:
  
                    RESTRICTED RIGHTS LEGEND
  
 Use, reproduction and disclosure by the US Government is
 subject to restrictions as set forth in subparagraphs (a)
 and (c) of the Commercial Computer Software - Restricted
 Rights clause in FAR 52.227-19.
  
 Gaussian, Inc.
 340 Quinnipiac St., Bldg. 40, Wallingford CT 06492
  
  
 ---------------------------------------------------------------
 Warning -- This program may not be used in any manner that
 competes with the business of Gaussian, Inc. or will provide
 assistance to any competitor of Gaussian, Inc.  The licensee
 of this program is prohibited from giving any competitor of
 Gaussian, Inc. access to this program.  By using this program,
 the user acknowledges that Gaussian, Inc. is engaged in the
 business of creating and licensing software in the field of
 computational chemistry and represents and warrants to the
 licensee that it is not a competitor of Gaussian, Inc. and that
 it will not use this program in any manner prohibited above.
 ---------------------------------------------------------------
  

 Cite this work as:
 Gaussian 16, Revision C.02,
 M. J. Frisch, G. W. Trucks, H. B. Schlegel, G. E. Scuseria, 
 M. A. Robb, J. R. Cheeseman, G. Scalmani, V. Barone, 
 G. A. Petersson, H. Nakatsuji, X. Li, M. Caricato, A. V. Marenich, 
 J. Bloino, B. G. Janesko, R. Gomperts, B. Mennucci, H. P. Hratchian, 
 J. V. Ortiz, A. F. Izmaylov, J. L. Sonnenberg, D. Williams-Young, 
 F. Ding, F. Lipparini, F. Egidi, J. Goings, B. Peng, A. Petrone, 
 T. Henderson, D. Ranasinghe, V. G. Zakrzewski, J. Gao, N. Rega, 
 G. Zheng, W. Liang, M. Hada, M. Ehara, K. Toyota, R. Fukuda, 
 J. Hasegawa, M. Ishida, T. Nakajima, Y. Honda, O. Kitao, H. Nakai, 
 T. Vreven, K. Throssell, J. A. Montgomery, Jr., J. E. Peralta, 
 F. Ogliaro, M. J. Bearpark, J. J. Heyd, E. N. Brothers, K. N. Kudin, 
 V. N. Staroverov, T. A. Keith, R. Kobayashi, J. Normand, 
 K. Raghavachari, A. P. Rendell, J. C. Burant, S. S. Iyengar, 
 J. Tomasi, M. Cossi, J. M. Millam, M. Klene, C. Adamo, R. Cammi, 
 J. W. Ochterski, R. L. Martin, K. Morokuma, O. Farkas, 
 J. B. Foresman, and D. J. Fox, Gaussian, Inc., Wallingford CT, 2019.
 
 ******************************************
 Gaussian 16:  ES64L-G16RevC.02  7-Dec-2021
                17-Jul-2024 
 ******************************************
 %chk=A_Ru_Cis_straight_CO_TDDFT_B3LYP_def2svp_smd_water_S_Sing_to_Sing.chk
 %Oldchk=A_Ru_Cis_straight_CO_B3LYP_def2SVP_smd_water_S_Opt.chk
 SetSPE:  set environment variable "OMP_PROC_BIND" = "true"
 SetSPE:  set environment variable "OMP_PLACES" = "{0},{1},{2},{3},{4},{5},{6},{7},{8},{9},{10},{11},{12},{13},{14},{15},{16},{17},{18},{19},{20},{21},{22},{23},{24},{25},{26},{27},{28},{29},{30},{31},{32},{33},{34},{35}"
 Copying data from "A_Ru_Cis_straight_CO_B3LYP_def2SVP_smd_water_S_Opt.chk" to current chk file "A_Ru_Cis_straight_CO_TDDFT_B3LYP_def2svp_smd_water_S_Sing_to_Sing.chk"
 IOpt=  2 FromEx=T IUOpen= 4 IOptOp= 5 NList=   0 IFRang= 0 IUIn= 4 IUOut= 2.
 ----------------------------------------------------------------------
 # td=(singlets,nstates=50,conver=3) b3lyp scrf=(smd,solvent=water) def
 2svp empiricaldispersion=gd3bj int=ultrafine scf=xqc guess=read geom=c
 heck
 ----------------------------------------------------------------------
 1/29=2,38=1,172=1/1;
 2/12=2,40=1/2;
 3/5=43,7=101,11=9,14=-4,25=1,30=1,70=32201,72=1,74=-5,75=-5,116=-2,124=41/1,2,3,8;
 4/5=1/1;
 5/5=2,8=3,13=1,38=6,53=1/2,8;
 8/6=1,10=1,108=50/1;
 9/9=3,41=50,42=1,48=1,70=2/14;
 6/7=2,8=2,9=2,10=2/1;
 99/5=1,9=1/99;
 ---------------------------------------------------------------
 A_Ru_Cis_straight_CO_DFT_B3LYP_def2svp_smd_water_S_Sing_to_Sing
 ---------------------------------------------------------------
 Structure from the checkpoint file:  "A_Ru_Cis_straight_CO_TDDFT_B3LYP_def2svp_smd_water_S_Sing_to_Sing.chk"
 Charge =  0 Multiplicity = 1
 Redundant internal coordinates found in file.  (old form).
 P,0,2.3994573304,-0.2134475494,-0.1306810836
 N,0,0.0194979247,1.5671668536,-0.1153348038
 C,0,2.2627507278,1.3610728783,-1.1050972645
 H,0,3.1865888748,1.9546939722,-1.0973172965
 H,0,2.0830358754,1.0338511377,-2.1410252597
 O,0,-0.0084392702,-0.5786522143,-2.0742397746
 P,0,-2.399518571,-0.1386611739,0.0645939644
 C,0,1.0952384861,2.1946419083,-0.6536277555
 C,0,1.1213736583,3.5855287184,-0.7825697088
 H,0,2.0010604095,4.0625518328,-1.2160178514
 C,0,0.032837476,4.3369023444,-0.3473658028
 H,0,0.0395352979,5.4252534051,-0.4356735974
 C,0,-1.0666921297,3.678594771,0.1997414385
 H,0,-1.9430797476,4.2295865802,0.5424431205
 C,0,-1.054766517,2.286579857,0.2997252115
 C,0,-2.2368303268,1.5392913479,0.8537135046
 H,0,-3.1475862944,2.147742934,0.7748113628
 H,0,-2.0669710423,1.3397187747,1.9250794826
 Ru,0,-0.0004656901,-0.5493686141,0.0302338998
 H,0,0.5232414213,-1.3429797467,-2.320325429
 C,0,-3.2777181346,0.2049760109,-1.5960064185
 C,0,-3.5816619486,-1.0867428831,1.2263588616
 C,0,3.5442742795,-1.3215722845,-1.1859293515
 C,0,3.3184156456,0.3155481634,1.458302267
 C,0,2.5792938398,1.5356132702,2.0445468826
 H,0,2.7049161822,2.4257357293,1.413126618
 H,0,1.5075086632,1.3734671768,2.1970988319
 H,0,3.0230103839,1.7663461775,3.0265162043
 C,0,3.3051410378,-0.84552474,2.4718935966
 H,0,3.5260104252,-0.4500646445,3.4769412467
 H,0,2.3381052922,-1.3600967388,2.520112311
 H,0,4.0707771786,-1.5950227055,2.2387146229
 C,0,4.7704240186,0.7539369017,1.2149856629
 H,0,5.1759707659,1.1501238196,2.1611184016
 H,0,5.4168222909,-0.0772452711,0.9072409038
 H,0,4.8421783566,1.5554609873,0.4650084288
 C,0,4.6739696313,-0.5329570165,-1.866316758
 H,0,5.3387346445,-0.0281782055,-1.1573510038
 H,0,5.2868223541,-1.2387792202,-2.4524052097
 H,0,4.2797028516,0.2160295184,-2.5682782198
 C,0,4.1199206205,-2.4398034261,-0.3034956655
 H,0,4.6088393451,-3.1852257447,-0.9519674224
 H,0,4.875898777,-2.0724149962,0.4015117861
 H,0,3.3310018848,-2.9561754834,0.2646056778
 C,0,2.7084384471,-1.9853533456,-2.2909923221
 H,0,1.894280628,-2.5918283253,-1.8703663225
 H,0,2.2963944633,-1.2486108743,-2.9937088862
 H,0,3.3650079209,-2.6580928179,-2.8667568117
 C,0,-3.1975273902,-1.0593485797,-2.4707074934
 H,0,-3.5703710264,-0.8178823929,-3.4805469609
 H,0,-2.1598008063,-1.4047083805,-2.559409464
 H,0,-3.8132901096,-1.8779769498,-2.079295579
 C,0,-4.7409570335,0.6429021213,-1.4484554445
 H,0,-5.1146648199,0.9367395751,-2.4441108174
 H,0,-5.3909148951,-0.1619236566,-1.0821719738
 H,0,-4.849056413,1.5151628668,-0.7865568351
 C,0,-2.521524914,1.3509236822,-2.2954995147
 H,0,-2.6681073248,2.3108618715,-1.7813251042
 H,0,-1.4490102318,1.1486916523,-2.3800417563
 H,0,-2.9306142285,1.4609007391,-3.313659482
 C,0,-2.7783395204,-1.5839075033,2.4358236492
 H,0,-1.9558500438,-2.2490929687,2.1408743721
 H,0,-2.3691025632,-0.755433409,3.0272986785
 H,0,-3.4574418002,-2.1541439536,3.090963737
 C,0,-4.7255602745,-0.208567009,1.7583531687
 H,0,-5.373054306,0.1862735619,0.9687146777
 H,0,-5.3529803086,-0.8214836781,2.427426774
 H,0,-4.3460208333,0.6360586919,2.3517292097
 C,0,-4.1390496071,-2.3172081112,0.4943671776
 H,0,-4.6655979378,-2.953722333,1.2244563861
 H,0,-4.8591049661,-2.0513776587,-0.2897184026
 H,0,-3.3351550352,-2.9195021922,0.0437764686
 O,0,-0.0467168979,-2.6537660472,-0.0848380298
 C,0,0.0361735072,-0.5314053571,1.8507102099
 H,0,-0.3052093799,-2.7486339917,-1.0139561888
 O,0,0.0897914219,-0.5068166386,3.0198342679
 Recover connectivity data from disk.
                           ----------------------------
                           !    Current Parameters    !
                           ! (Angstroms and Degrees)  !
 --------------------------                            --------------------------
 ! Name  Definition              Value                                          !
 --------------------------------------------------------------------------------
 ! R1    R(1,3)                  1.8567                                         !
 ! R2    R(1,19)                 2.4287                                         !
 ! R3    R(1,23)                 1.911                                          !
 ! R4    R(1,24)                 1.9103                                         !
 ! R5    R(2,8)                  1.3567                                         !
 ! R6    R(2,15)                 1.3579                                         !
 ! R7    R(2,19)                 2.1216                                         !
 ! R8    R(3,4)                  1.0981                                         !
 ! R9    R(3,5)                  1.1011                                         !
 ! R10   R(3,8)                  1.5039                                         !
 ! R11   R(6,19)                 2.1047                                         !
 ! R12   R(6,20)                 0.963                                          !
 ! R13   R(7,16)                 1.8614                                         !
 ! R14   R(7,19)                 2.4342                                         !
 ! R15   R(7,21)                 1.9097                                         !
 ! R16   R(7,22)                 1.9095                                         !
 ! R17   R(8,9)                  1.3971                                         !
 ! R18   R(9,10)                 1.0905                                         !
 ! R19   R(9,11)                 1.3924                                         !
 ! R20   R(11,12)                1.0919                                         !
 ! R21   R(11,13)                1.3934                                         !
 ! R22   R(13,14)                1.0905                                         !
 ! R23   R(13,15)                1.3957                                         !
 ! R24   R(15,16)                1.5042                                         !
 ! R25   R(16,17)                1.0981                                         !
 ! R26   R(16,18)                1.103                                          !
 ! R27   R(19,73)                2.108                                          !
 ! R28   R(19,74)                1.8209                                         !
 ! R29   R(21,49)                1.5395                                         !
 ! R30   R(21,53)                1.5345                                         !
 ! R31   R(21,57)                1.5409                                         !
 ! R32   R(22,61)                1.5347                                         !
 ! R33   R(22,65)                1.5371                                         !
 ! R34   R(22,69)                1.5364                                         !
 ! R35   R(23,37)                1.5366                                         !
 ! R36   R(23,41)                1.5364                                         !
 ! R37   R(23,45)                1.5364                                         !
 ! R38   R(24,25)                1.5423                                         !
 ! R39   R(24,29)                1.5413                                         !
 ! R40   R(24,33)                1.5361                                         !
 ! R41   R(25,26)                1.0985                                         !
 ! R42   R(25,27)                1.0947                                         !
 ! R43   R(25,28)                1.102                                          !
 ! R44   R(29,30)                1.1024                                         !
 ! R45   R(29,31)                1.0965                                         !
 ! R46   R(29,32)                1.0965                                         !
 ! R47   R(33,34)                1.103                                          !
 ! R48   R(33,35)                1.097                                          !
 ! R49   R(33,36)                1.1                                            !
 ! R50   R(37,38)                1.0951                                         !
 ! R51   R(37,39)                1.1033                                         !
 ! R52   R(37,40)                1.0996                                         !
 ! R53   R(41,42)                1.1024                                         !
 ! R54   R(41,43)                1.097                                          !
 ! R55   R(41,44)                1.1008                                         !
 ! R56   R(45,46)                1.0989                                         !
 ! R57   R(45,47)                1.0984                                         !
 ! R58   R(45,48)                1.1023                                         !
 ! R59   R(49,50)                1.1032                                         !
 ! R60   R(49,51)                1.0973                                         !
 ! R61   R(49,52)                1.0966                                         !
 ! R62   R(53,54)                1.1033                                         !
 ! R63   R(53,55)                1.0974                                         !
 ! R64   R(53,56)                1.1003                                         !
 ! R65   R(57,58)                1.0988                                         !
 ! R66   R(57,59)                1.0947                                         !
 ! R67   R(57,60)                1.1028                                         !
 ! R68   R(61,62)                1.0982                                         !
 ! R69   R(61,63)                1.0971                                         !
 ! R70   R(61,64)                1.1025                                         !
 ! R71   R(65,66)                1.0948                                         !
 ! R72   R(65,67)                1.1032                                         !
 ! R73   R(65,68)                1.0998                                         !
 ! R74   R(69,70)                1.1025                                         !
 ! R75   R(69,71)                1.0972                                         !
 ! R76   R(69,72)                1.1009                                         !
 ! R77   R(73,75)                0.9691                                         !
 ! R78   R(74,76)                1.1706                                         !
 ! A1    A(3,1,19)              94.5489                                         !
 ! A2    A(3,1,23)             104.2436                                         !
 ! A3    A(3,1,24)             103.7171                                         !
 ! A4    A(19,1,23)            123.2538                                         !
 ! A5    A(19,1,24)            117.294                                          !
 ! A6    A(23,1,24)            109.3721                                         !
 ! A7    A(8,2,15)             120.2336                                         !
 ! A8    A(8,2,19)             119.74                                           !
 ! A9    A(15,2,19)            120.0074                                         !
 ! A10   A(1,3,4)              113.126                                          !
 ! A11   A(1,3,5)              104.6992                                         !
 ! A12   A(1,3,8)              111.6938                                         !
 ! A13   A(4,3,5)              107.7344                                         !
 ! A14   A(4,3,8)              110.5698                                         !
 ! A15   A(5,3,8)              108.6887                                         !
 ! A16   A(19,6,20)            105.3346                                         !
 ! A17   A(16,7,19)             94.1255                                         !
 ! A18   A(16,7,21)            104.2781                                         !
 ! A19   A(16,7,22)            104.1088                                         !
 ! A20   A(19,7,21)            118.1195                                         !
 ! A21   A(19,7,22)            122.3422                                         !
 ! A22   A(21,7,22)            109.4942                                         !
 ! A23   A(2,8,3)              118.5744                                         !
 ! A24   A(2,8,9)              120.7897                                         !
 ! A25   A(3,8,9)              120.6356                                         !
 ! A26   A(8,9,10)             119.1599                                         !
 ! A27   A(8,9,11)             119.5869                                         !
 ! A28   A(10,9,11)            121.2512                                         !
 ! A29   A(9,11,12)            120.5149                                         !
 ! A30   A(9,11,13)            118.9894                                         !
 ! A31   A(12,11,13)           120.4956                                         !
 ! A32   A(11,13,14)           121.2554                                         !
 ! A33   A(11,13,15)           119.5109                                         !
 ! A34   A(14,13,15)           119.2304                                         !
 ! A35   A(2,15,13)            120.8827                                         !
 ! A36   A(2,15,16)            118.1037                                         !
 ! A37   A(13,15,16)           121.0092                                         !
 ! A38   A(7,16,15)            111.1244                                         !
 ! A39   A(7,16,17)            113.3612                                         !
 ! A40   A(7,16,18)            105.1977                                         !
 ! A41   A(15,16,17)           110.4885                                         !
 ! A42   A(15,16,18)           109.0636                                         !
 ! A43   A(17,16,18)           107.324                                          !
 ! A44   A(1,19,2)              81.2671                                         !
 ! A45   A(1,19,6)              86.5268                                         !
 ! A46   A(1,19,7)             162.0825                                         !
 ! A47   A(1,19,73)             98.9829                                         !
 ! A48   A(1,19,74)             92.5788                                         !
 ! A49   A(2,19,6)              86.865                                          !
 ! A50   A(2,19,7)              80.9047                                         !
 ! A51   A(2,19,74)             93.3574                                         !
 ! A52   A(6,19,7)              90.7293                                         !
 ! A53   A(6,19,73)             86.0691                                         !
 ! A54   A(7,19,73)             98.4866                                         !
 ! A55   A(7,19,74)             90.2323                                         !
 ! A56   A(73,19,74)            93.719                                          !
 ! A57   A(7,21,49)            108.8039                                         !
 ! A58   A(7,21,53)            113.9698                                         !
 ! A59   A(7,21,57)            107.6312                                         !
 ! A60   A(49,21,53)           109.7968                                         !
 ! A61   A(49,21,57)           109.1036                                         !
 ! A62   A(53,21,57)           107.4202                                         !
 ! A63   A(7,22,61)            108.4378                                         !
 ! A64   A(7,22,65)            112.8073                                         !
 ! A65   A(7,22,69)            109.4131                                         !
 ! A66   A(61,22,65)           107.5693                                         !
 ! A67   A(61,22,69)           107.8136                                         !
 ! A68   A(65,22,69)           110.638                                          !
 ! A69   A(1,23,37)            112.7887                                         !
 ! A70   A(1,23,41)            109.2284                                         !
 ! A71   A(1,23,45)            108.7712                                         !
 ! A72   A(37,23,41)           110.6344                                         !
 ! A73   A(37,23,45)           107.6516                                         !
 ! A74   A(41,23,45)           107.6077                                         !
 ! A75   A(1,24,25)            107.7407                                         !
 ! A76   A(1,24,29)            109.5276                                         !
 ! A77   A(1,24,33)            113.7025                                         !
 ! A78   A(25,24,29)           109.9884                                         !
 ! A79   A(25,24,33)           106.7051                                         !
 ! A80   A(29,24,33)           109.1041                                         !
 ! A81   A(24,25,26)           111.5747                                         !
 ! A82   A(24,25,27)           113.8928                                         !
 ! A83   A(24,25,28)           108.143                                          !
 ! A84   A(26,25,27)           108.1851                                         !
 ! A85   A(26,25,28)           107.2463                                         !
 ! A86   A(27,25,28)           107.5217                                         !
 ! A87   A(24,29,30)           109.1224                                         !
 ! A88   A(24,29,31)           112.9568                                         !
 ! A89   A(24,29,32)           111.6569                                         !
 ! A90   A(30,29,31)           107.7555                                         !
 ! A91   A(30,29,32)           107.4084                                         !
 ! A92   A(31,29,32)           107.7217                                         !
 ! A93   A(24,33,34)           108.3113                                         !
 ! A94   A(24,33,35)           112.6547                                         !
 ! A95   A(24,33,36)           112.1845                                         !
 ! A96   A(34,33,35)           107.226                                          !
 ! A97   A(34,33,36)           107.4045                                         !
 ! A98   A(35,33,36)           108.8072                                         !
 ! A99   A(23,37,38)           113.3398                                         !
 ! A100  A(23,37,39)           108.3773                                         !
 ! A101  A(23,37,40)           111.6315                                         !
 ! A102  A(38,37,39)           107.5528                                         !
 ! A103  A(38,37,40)           108.4786                                         !
 ! A104  A(39,37,40)           107.2054                                         !
 ! A105  A(23,41,42)           108.6912                                         !
 ! A106  A(23,41,43)           112.5538                                         !
 ! A107  A(23,41,44)           111.6729                                         !
 ! A108  A(42,41,43)           107.3891                                         !
 ! A109  A(42,41,44)           107.7128                                         !
 ! A110  A(43,41,44)           108.6206                                         !
 ! A111  A(23,45,46)           111.4812                                         !
 ! A112  A(23,45,47)           111.9918                                         !
 ! A113  A(23,45,48)           108.3801                                         !
 ! A114  A(46,45,47)           109.703                                          !
 ! A115  A(46,45,48)           107.7216                                         !
 ! A116  A(47,45,48)           107.3754                                         !
 ! A117  A(21,49,50)           108.8278                                         !
 ! A118  A(21,49,51)           110.7124                                         !
 ! A119  A(21,49,52)           112.3978                                         !
 ! A120  A(50,49,51)           108.3313                                         !
 ! A121  A(50,49,52)           107.4782                                         !
 ! A122  A(51,49,52)           108.962                                          !
 ! A123  A(21,53,54)           108.1929                                         !
 ! A124  A(21,53,55)           112.8024                                         !
 ! A125  A(21,53,56)           112.196                                          !
 ! A126  A(54,53,55)           107.2117                                         !
 ! A127  A(54,53,56)           107.3651                                         !
 ! A128  A(55,53,56)           108.8092                                         !
 ! A129  A(21,57,58)           111.828                                          !
 ! A130  A(21,57,59)           112.2398                                         !
 ! A131  A(21,57,60)           108.1341                                         !
 ! A132  A(58,57,59)           109.1617                                         !
 ! A133  A(58,57,60)           107.1833                                         !
 ! A134  A(59,57,60)           108.0937                                         !
 ! A135  A(22,61,62)           112.1232                                         !
 ! A136  A(22,61,63)           112.0544                                         !
 ! A137  A(22,61,64)           108.2659                                         !
 ! A138  A(62,61,63)           108.8341                                         !
 ! A139  A(62,61,64)           107.9171                                         !
 ! A140  A(63,61,64)           107.4555                                         !
 ! A141  A(22,65,66)           113.3616                                         !
 ! A142  A(22,65,67)           108.4055                                         !
 ! A143  A(22,65,68)           111.634                                          !
 ! A144  A(66,65,67)           107.5442                                         !
 ! A145  A(66,65,68)           108.437                                          !
 ! A146  A(67,65,68)           107.2017                                         !
 ! A147  A(22,69,70)           108.672                                          !
 ! A148  A(22,69,71)           112.613                                          !
 ! A149  A(22,69,72)           111.6065                                         !
 ! A150  A(70,69,71)           107.4383                                         !
 ! A151  A(70,69,72)           107.6939                                         !
 ! A152  A(71,69,72)           108.618                                          !
 ! A153  A(19,73,75)            98.97                                           !
 ! A154  L(2,19,73,1,-1)       180.2501                                         !
 ! A155  L(6,19,74,1,-1)       179.1056                                         !
 ! A156  L(19,74,76,11,-1)     179.3409                                         !
 ! A157  L(2,19,73,1,-2)       187.1812                                         !
 ! A158  L(6,19,74,1,-2)       180.3605                                         !
 ! A159  L(19,74,76,11,-2)     181.5947                                         !
 ! D1    D(19,1,3,4)           162.5316                                         !
 ! D2    D(19,1,3,5)           -80.4381                                         !
 ! D3    D(19,1,3,8)            37.0058                                         !
 ! D4    D(23,1,3,4)           -71.4727                                         !
 ! D5    D(23,1,3,5)            45.5576                                         !
 ! D6    D(23,1,3,8)           163.0015                                         !
 ! D7    D(24,1,3,4)            42.9983                                         !
 ! D8    D(24,1,3,5)           160.0285                                         !
 ! D9    D(24,1,3,8)           -82.5275                                         !
 ! D10   D(3,1,19,2)           -28.0863                                         !
 ! D11   D(3,1,19,6)            59.2709                                         !
 ! D12   D(3,1,19,7)           -22.3185                                         !
 ! D13   D(3,1,19,73)          144.7325                                         !
 ! D14   D(3,1,19,74)         -121.0896                                         !
 ! D15   D(23,1,19,2)         -138.41                                           !
 ! D16   D(23,1,19,6)          -51.0528                                         !
 ! D17   D(23,1,19,7)         -132.6422                                         !
 ! D18   D(23,1,19,73)          34.4088                                         !
 ! D19   D(23,1,19,74)         128.5868                                         !
 ! D20   D(24,1,19,2)           79.8965                                         !
 ! D21   D(24,1,19,6)          167.2537                                         !
 ! D22   D(24,1,19,7)           85.6643                                         !
 ! D23   D(24,1,19,73)        -107.2847                                         !
 ! D24   D(24,1,19,74)         -13.1067                                         !
 ! D25   D(3,1,23,37)           37.516                                          !
 ! D26   D(3,1,23,41)          160.9766                                         !
 ! D27   D(3,1,23,45)          -81.8355                                         !
 ! D28   D(19,1,23,37)         142.8415                                         !
 ! D29   D(19,1,23,41)         -93.698                                          !
 ! D30   D(19,1,23,45)          23.49                                           !
 ! D31   D(24,1,23,37)         -72.8848                                         !
 ! D32   D(24,1,23,41)          50.5757                                         !
 ! D33   D(24,1,23,45)         167.7637                                         !
 ! D34   D(3,1,24,25)           51.2689                                         !
 ! D35   D(3,1,24,29)          170.8903                                         !
 ! D36   D(3,1,24,33)          -66.7689                                         !
 ! D37   D(19,1,24,25)         -51.3119                                         !
 ! D38   D(19,1,24,29)          68.3094                                         !
 ! D39   D(19,1,24,33)        -169.3498                                         !
 ! D40   D(23,1,24,25)         162.0189                                         !
 ! D41   D(23,1,24,29)         -78.3597                                         !
 ! D42   D(23,1,24,33)          43.9811                                         !
 ! D43   D(15,2,8,3)          -179.7992                                         !
 ! D44   D(15,2,8,9)             0.405                                          !
 ! D45   D(19,2,8,3)            -1.3832                                         !
 ! D46   D(19,2,8,9)           178.821                                          !
 ! D47   D(8,2,15,13)           -0.9296                                         !
 ! D48   D(8,2,15,16)          178.3197                                         !
 ! D49   D(19,2,15,13)        -179.3414                                         !
 ! D50   D(19,2,15,16)          -0.0921                                         !
 ! D51   D(8,2,19,1)            21.5084                                         !
 ! D52   D(8,2,19,6)           -65.4552                                         !
 ! D53   D(8,2,19,7)          -156.6973                                         !
 ! D54   D(8,2,19,74)          113.6051                                         !
 ! D55   D(15,2,19,1)         -160.072                                          !
 ! D56   D(15,2,19,6)          112.9645                                         !
 ! D57   D(15,2,19,7)           21.7223                                         !
 ! D58   D(15,2,19,74)         -67.9752                                         !
 ! D59   D(1,3,8,2)            -28.2429                                         !
 ! D60   D(1,3,8,9)            151.5533                                         !
 ! D61   D(4,3,8,2)           -155.1678                                         !
 ! D62   D(4,3,8,9)             24.6283                                         !
 ! D63   D(5,3,8,2)             86.7721                                         !
 ! D64   D(5,3,8,9)            -93.4318                                         !
 ! D65   D(20,6,19,1)           63.0223                                         !
 ! D66   D(20,6,19,2)          144.4527                                         !
 ! D67   D(20,6,19,7)         -134.6976                                         !
 ! D68   D(20,6,19,73)         -36.2407                                         !
 ! D69   D(19,7,16,15)          39.1215                                         !
 ! D70   D(19,7,16,17)         164.2649                                         !
 ! D71   D(19,7,16,18)         -78.7695                                         !
 ! D72   D(21,7,16,15)         -81.2732                                         !
 ! D73   D(21,7,16,17)          43.8702                                         !
 ! D74   D(21,7,16,18)         160.8358                                         !
 ! D75   D(22,7,16,15)         163.9538                                         !
 ! D76   D(22,7,16,17)         -70.9028                                         !
 ! D77   D(22,7,16,18)          46.0628                                         !
 ! D78   D(16,7,19,1)          -34.9801                                         !
 ! D79   D(16,7,19,2)          -29.2065                                         !
 ! D80   D(16,7,19,6)         -115.9143                                         !
 ! D81   D(16,7,19,73)         157.9514                                         !
 ! D82   D(16,7,19,74)          64.1565                                         !
 ! D83   D(21,7,19,1)           73.6167                                         !
 ! D84   D(21,7,19,2)           79.3903                                         !
 ! D85   D(21,7,19,6)           -7.3175                                         !
 ! D86   D(21,7,19,73)         -93.4518                                         !
 ! D87   D(21,7,19,74)         172.7533                                         !
 ! D88   D(22,7,19,1)         -144.5492                                         !
 ! D89   D(22,7,19,2)         -138.7757                                         !
 ! D90   D(22,7,19,6)          134.5165                                         !
 ! D91   D(22,7,19,73)          48.3823                                         !
 ! D92   D(22,7,19,74)         -45.4127                                         !
 ! D93   D(16,7,21,49)         167.9458                                         !
 ! D94   D(16,7,21,53)         -69.1706                                         !
 ! D95   D(16,7,21,57)          49.8473                                         !
 ! D96   D(19,7,21,49)          65.227                                          !
 ! D97   D(19,7,21,53)        -171.8894                                         !
 ! D98   D(19,7,21,57)         -52.8715                                         !
 ! D99   D(22,7,21,49)         -81.1431                                         !
 ! D100  D(22,7,21,53)          41.7406                                         !
 ! D101  D(22,7,21,57)         160.7584                                         !
 ! D102  D(16,7,22,61)         -79.6738                                         !
 ! D103  D(16,7,22,65)          39.3633                                         !
 ! D104  D(16,7,22,69)         162.9776                                         !
 ! D105  D(19,7,22,61)          24.6235                                         !
 ! D106  D(19,7,22,65)         143.6606                                         !
 ! D107  D(19,7,22,69)         -92.7251                                         !
 ! D108  D(21,7,22,61)         169.3033                                         !
 ! D109  D(21,7,22,65)         -71.6597                                         !
 ! D110  D(21,7,22,69)          51.9547                                         !
 ! D111  D(2,8,9,10)           179.7976                                         !
 ! D112  D(2,8,9,11)             0.3127                                         !
 ! D113  D(3,8,9,10)             0.0061                                         !
 ! D114  D(3,8,9,11)          -179.4789                                         !
 ! D115  D(8,9,11,12)          179.6526                                         !
 ! D116  D(8,9,11,13)           -0.498                                          !
 ! D117  D(10,9,11,12)           0.1787                                         !
 ! D118  D(10,9,11,13)        -179.972                                          !
 ! D119  D(9,11,13,14)        -179.3421                                         !
 ! D120  D(9,11,13,15)          -0.0093                                         !
 ! D121  D(12,11,13,14)          0.5073                                         !
 ! D122  D(12,11,13,15)        179.8401                                         !
 ! D123  D(11,13,15,2)           0.7296                                         !
 ! D124  D(11,13,15,16)       -178.4978                                         !
 ! D125  D(14,13,15,2)        -179.924                                          !
 ! D126  D(14,13,15,16)          0.8486                                         !
 ! D127  D(2,15,16,7)          -30.6589                                         !
 ! D128  D(2,15,16,17)        -157.3975                                         !
 ! D129  D(2,15,16,18)          84.863                                          !
 ! D130  D(13,15,16,7)         148.5894                                         !
 ! D131  D(13,15,16,17)         21.8508                                         !
 ! D132  D(13,15,16,18)        -95.8887                                         !
 ! D133  D(1,19,73,75)        -101.1853                                         !
 ! D134  D(6,19,73,75)         -15.3337                                         !
 ! D135  D(7,19,73,75)          74.8179                                         !
 ! D136  D(74,19,73,75)        165.6089                                         !
 ! D137  D(7,21,49,50)        -171.7659                                         !
 ! D138  D(7,21,49,51)         -52.8072                                         !
 ! D139  D(7,21,49,52)          69.3044                                         !
 ! D140  D(53,21,49,50)         62.8761                                         !
 ! D141  D(53,21,49,51)       -178.1653                                         !
 ! D142  D(53,21,49,52)        -56.0537                                         !
 ! D143  D(57,21,49,50)        -54.6013                                         !
 ! D144  D(57,21,49,51)         64.3573                                         !
 ! D145  D(57,21,49,52)       -173.531                                          !
 ! D146  D(7,21,53,54)         172.9676                                         !
 ! D147  D(7,21,53,55)         -68.6049                                         !
 ! D148  D(7,21,53,56)          54.7124                                         !
 ! D149  D(49,21,53,54)        -64.6922                                         !
 ! D150  D(49,21,53,55)         53.7353                                         !
 ! D151  D(49,21,53,56)        177.0526                                         !
 ! D152  D(57,21,53,54)         53.83                                           !
 ! D153  D(57,21,53,55)        172.2574                                         !
 ! D154  D(57,21,53,56)        -64.4252                                         !
 ! D155  D(7,21,57,58)         -70.1107                                         !
 ! D156  D(7,21,57,59)          52.9676                                         !
 ! D157  D(7,21,57,60)         172.1105                                         !
 ! D158  D(49,21,57,58)        171.9843                                         !
 ! D159  D(49,21,57,59)        -64.9373                                         !
 ! D160  D(49,21,57,60)         54.2056                                         !
 ! D161  D(53,21,57,58)         53.0159                                         !
 ! D162  D(53,21,57,59)        176.0942                                         !
 ! D163  D(53,21,57,60)        -64.7629                                         !
 ! D164  D(7,22,61,62)         -59.544                                          !
 ! D165  D(7,22,61,63)          63.1871                                         !
 ! D166  D(7,22,61,64)        -178.4837                                         !
 ! D167  D(65,22,61,62)        178.1689                                         !
 ! D168  D(65,22,61,63)        -59.1                                            !
 ! D169  D(65,22,61,64)         59.2292                                         !
 ! D170  D(69,22,61,62)         58.8239                                         !
 ! D171  D(69,22,61,63)       -178.4451                                         !
 ! D172  D(69,22,61,64)        -60.1158                                         !
 ! D173  D(7,22,65,66)          61.3719                                         !
 ! D174  D(7,22,65,67)        -179.3008                                         !
 ! D175  D(7,22,65,68)         -61.443                                          !
 ! D176  D(61,22,65,66)       -179.0879                                         !
 ! D177  D(61,22,65,67)        -59.7605                                         !
 ! D178  D(61,22,65,68)         58.0972                                         !
 ! D179  D(69,22,65,66)        -61.5621                                         !
 ! D180  D(69,22,65,67)         57.7653                                         !
 ! D181  D(69,22,65,68)        175.623                                          !
 ! D182  D(7,22,69,70)         169.6136                                         !
 ! D183  D(7,22,69,71)         -71.4767                                         !
 ! D184  D(7,22,69,72)          50.9996                                         !
 ! D185  D(61,22,69,70)         51.8732                                         !
 ! D186  D(61,22,69,71)        170.783                                          !
 ! D187  D(61,22,69,72)        -66.7408                                         !
 ! D188  D(65,22,69,70)        -65.5026                                         !
 ! D189  D(65,22,69,71)         53.4072                                         !
 ! D190  D(65,22,69,72)        175.8834                                         !
 ! D191  D(1,23,37,38)          60.6769                                         !
 ! D192  D(1,23,37,39)         179.9821                                         !
 ! D193  D(1,23,37,40)         -62.1747                                         !
 ! D194  D(41,23,37,38)        -62.0006                                         !
 ! D195  D(41,23,37,39)         57.3046                                         !
 ! D196  D(41,23,37,40)        175.1478                                         !
 ! D197  D(45,23,37,38)       -179.3251                                         !
 ! D198  D(45,23,37,39)        -60.0199                                         !
 ! D199  D(45,23,37,40)         57.8232                                         !
 ! D200  D(1,23,41,42)         168.6983                                         !
 ! D201  D(1,23,41,43)         -72.477                                          !
 ! D202  D(1,23,41,44)          50.0088                                         !
 ! D203  D(37,23,41,42)        -66.5738                                         !
 ! D204  D(37,23,41,43)         52.2509                                         !
 ! D205  D(37,23,41,44)        174.7367                                         !
 ! D206  D(45,23,41,42)         50.7777                                         !
 ! D207  D(45,23,41,43)        169.6024                                         !
 ! D208  D(45,23,41,44)        -67.9118                                         !
 ! D209  D(1,23,45,46)         -59.0579                                         !
 ! D210  D(1,23,45,47)          64.2868                                         !
 ! D211  D(1,23,45,48)        -177.447                                          !
 ! D212  D(37,23,45,46)        178.4317                                         !
 ! D213  D(37,23,45,47)        -58.2237                                         !
 ! D214  D(37,23,45,48)         60.0425                                         !
 ! D215  D(41,23,45,46)         59.158                                          !
 ! D216  D(41,23,45,47)       -177.4974                                         !
 ! D217  D(41,23,45,48)        -59.2312                                         !
 ! D218  D(1,24,25,26)         -69.4603                                         !
 ! D219  D(1,24,25,27)          53.3745                                         !
 ! D220  D(1,24,25,28)         172.8251                                         !
 ! D221  D(29,24,25,26)        171.2112                                         !
 ! D222  D(29,24,25,27)        -65.954                                          !
 ! D223  D(29,24,25,28)         53.4966                                         !
 ! D224  D(33,24,25,26)         52.9968                                         !
 ! D225  D(33,24,25,27)        175.8316                                         !
 ! D226  D(33,24,25,28)        -64.7178                                         !
 ! D227  D(1,24,29,30)        -161.5217                                         !
 ! D228  D(1,24,29,31)         -41.6941                                         !
 ! D229  D(1,24,29,32)          79.8987                                         !
 ! D230  D(25,24,29,30)        -43.2902                                         !
 ! D231  D(25,24,29,31)         76.5374                                         !
 ! D232  D(25,24,29,32)       -161.8697                                         !
 ! D233  D(33,24,29,30)         73.4333                                         !
 ! D234  D(33,24,29,31)       -166.7391                                         !
 ! D235  D(33,24,29,32)        -45.1463                                         !
 ! D236  D(1,24,33,34)         173.4201                                         !
 ! D237  D(1,24,33,35)         -68.146                                          !
 ! D238  D(1,24,33,36)          55.0472                                         !
 ! D239  D(25,24,33,34)         54.7869                                         !
 ! D240  D(25,24,33,35)        173.2208                                         !
 ! D241  D(25,24,33,36)        -63.586                                          !
 ! D242  D(29,24,33,34)        -64.0057                                         !
 ! D243  D(29,24,33,35)         54.4282                                         !
 ! D244  D(29,24,33,36)        177.6214                                         !
 --------------------------------------------------------------------------------
 Stoichiometry    C24H45NO3P2Ru
 Framework group  C1[X(C24H45NO3P2Ru)]
 Deg. of freedom   222
 Full point group                 C1      NOp   1
 Largest Abelian subgroup         C1      NOp   1
 Largest concise Abelian subgroup C1      NOp   1
                         Standard orientation:                         
 ---------------------------------------------------------------------
 Center     Atomic      Atomic             Coordinates (Angstroms)
 Number     Number       Type             X           Y           Z
 ---------------------------------------------------------------------
      1         15           0        2.393243   -0.186583   -0.164113
      2          7           0       -0.009259    1.550367    0.050399
      3          6           0        2.232019    1.481841   -0.962647
      4          1           0        3.148196    2.083334   -0.893718
      5          1           0        2.051901    1.265830   -2.027266
      6          8           0       -0.018408   -0.372002   -2.128373
      7         15           0       -2.405379   -0.196764    0.052711
      8          6           0        1.055938    2.246378   -0.420371
      9          6           0        1.063663    3.643284   -0.398662
     10          1           0        1.935221    4.175839   -0.780824
     11          6           0       -0.032468    4.328909    0.118339
     12          1           0       -0.040119    5.420431    0.147883
     13          6           0       -1.121018    3.600983    0.594620
     14          1           0       -2.002863    4.100188    0.997405
     15          6           0       -1.090800    2.206581    0.543884
     16          6           0       -2.260705    1.388366    1.017662
     17          1           0       -3.179530    1.989677    1.007604
     18          1           0       -2.083529    1.076749    2.060739
     19         44           0       -0.001435   -0.569606   -0.033046
     20          1           0        0.521927   -1.098253   -2.457059
     21          6           0       -3.295303    0.312204   -1.558470
     22          6           0       -3.570081   -1.280092    1.109068
     23          6           0        3.547461   -1.159277   -1.336180
     24          6           0        3.312414    0.180179    1.469840
     25          6           0        2.560329    1.320067    2.186474
     26          1           0        2.671713    2.274642    1.654337
     27          1           0        1.491401    1.128261    2.323918
     28          1           0        3.005421    1.449468    3.186241
     29          6           0        3.318544   -1.083449    2.352359
     30          1           0        3.538800   -0.795730    3.393511
     31          1           0        2.358410   -1.612967    2.347758
     32          1           0        4.092680   -1.793255    2.037390
     33          6           0        4.757583    0.661407    1.270789
     34          1           0        5.162228    0.958641    2.252886
     35          1           0        5.413208   -0.123141    0.873245
     36          1           0        4.815712    1.539973    0.611398
     37          6           0        4.663910   -0.287050   -1.931004
     38          1           0        5.325300    0.147125   -1.173771
     39          1           0        5.283145   -0.917423   -2.591648
     40          1           0        4.256948    0.527950   -2.546905
     41          6           0        4.141324   -2.358391   -0.581228
     42          1           0        4.636866   -3.023045   -1.307783
     43          1           0        4.895663   -2.059161    0.156978
     44          1           0        3.361630   -2.943375   -0.069717
     45          6           0        2.715290   -1.711085   -2.503823
     46          1           0        1.910857   -2.370079   -2.148566
     47          1           0        2.290706   -0.908411   -3.121741
     48          1           0        3.377859   -2.309106   -3.150769
     49          6           0       -3.202806   -0.849308   -2.564642
     50          1           0       -3.583210   -0.505361   -3.541416
     51          1           0       -2.161142   -1.169339   -2.693229
     52          1           0       -3.806271   -1.713427   -2.261910
     53          6           0       -4.763365    0.712283   -1.360100
     54          1           0       -5.145242    1.106751   -2.317122
     55          1           0       -5.401311   -0.135859   -1.080757
     56          1           0       -4.879689    1.506616   -0.607679
     57          6           0       -2.556989    1.536770   -2.132619
     58          1           0       -2.713575    2.433675   -1.517488
     59          1           0       -1.482357    1.359032   -2.241742
     60          1           0       -2.971987    1.750423   -3.131732
     61          6           0       -2.755070   -1.894047    2.255418
     62          1           0       -1.925441   -2.512630    1.887957
     63          1           0       -2.353858   -1.128808    2.931528
     64          1           0       -3.423879   -2.540506    2.847316
     65          6           0       -4.722764   -0.479578    1.736136
     66          1           0       -5.378779   -0.010530    0.995654
     67          1           0       -5.339286   -1.169283    2.337127
     68          1           0       -4.351445    0.301119    2.415969
     69          6           0       -4.114902   -2.431760    0.250366
     70          1           0       -4.629988   -3.150164    0.909164
     71          1           0       -4.841793   -2.092517   -0.498286
     72          1           0       -3.305367   -2.971294   -0.264990
     73          8           0       -0.021212   -2.649769   -0.374221
     74          6           0        0.043082   -0.747476    1.778633
     75          1           0       -0.282604   -2.647355   -1.307359
     76          8           0        0.101589   -0.848332    2.943423
 ---------------------------------------------------------------------
 Rotational constants (GHZ):           0.1993353           0.1037382           0.0966769
 Standard basis: def2SVP (5D, 7F)
 There are   719 symmetry adapted cartesian basis functions of A   symmetry.
 There are   684 symmetry adapted basis functions of A   symmetry.
   684 basis functions,  1154 primitive gaussians,   719 cartesian basis functions
   133 alpha electrons      133 beta electrons
       nuclear repulsion energy      4529.5107791004 Hartrees.
 NAtoms=   76 NActive=   76 NUniq=   76 SFac= 1.00D+00 NAtFMM=   60 NAOKFM=T Big=T
 Integral buffers will be    131072 words long.
 Regular integral format.
 Two-electron integral symmetry is turned on.
 Nuclear repulsion after empirical dispersion term =     4529.2891431051 Hartrees.
 ------------------------------------------------------------------------------
 Polarizable Continuum Model (PCM)
 =================================
 Model                : PCM.
 Atomic radii         : SMD-Coulomb.
 Polarization charges : Total charges.
 Charge compensation  : None.
 Solution method      : On-the-fly selection.
 Cavity type          : VdW (van der Waals Surface) (Alpha=1.000).
 Cavity algorithm     : GePol (No added spheres)
                        Default sphere list used, NSphG=   76.
                        Lebedev-Laikov grids with approx.  5.0 points / Ang**2.
                        Smoothing algorithm: York/Karplus (Gamma=1.0000).
                        Polarization charges: spherical gaussians, with
                                              point-specific exponents (IZeta= 3).
                        Self-potential: point-specific (ISelfS= 7).
                        Self-field    : sphere-specific E.n sum rule (ISelfD= 2).
 Solvent              : Water, Eps=  78.355300 Eps(inf)=   1.777849
 ------------------------------------------------------------------------------
 ------------------------------------------------------------------------------
 Atomic radii for non-electrostatic terms: SMD-CDS.
 ------------------------------------------------------------------------------
 Nuclear repulsion after PCM non-electrostatic terms =     4529.3076791040 Hartrees.
 One-electron integrals computed using PRISM.
   1 Symmetry operations used in ECPInt.
 ECPInt:  NShTT=   54615 NPrTT=  190596 LenC2=   48063 LenP2D=  113759.
 LDataN:  DoStor=T MaxTD1= 7 Len=  274
 NBasis=   684 RedAO= T EigKep=  4.66D-04  NBF=   684
 NBsUse=   684 1.00D-06 EigRej= -1.00D+00 NBFU=   684
 Defaulting to unpruned grid for atomic number  44.
 Initial guess from the checkpoint file:  "A_Ru_Cis_straight_CO_TDDFT_B3LYP_def2svp_smd_water_S_Sing_to_Sing.chk"
 B after Tr=    -0.000000   -0.000000    0.000000
         Rot=    1.000000    0.000000   -0.000000   -0.000000 Ang=   0.00 deg.
 Requested convergence on RMS density matrix=1.00D-08 within  32 cycles.
 Requested convergence on MAX density matrix=1.00D-06.
 Requested convergence on             energy=1.00D-06.
 No special actions if energy rises.
 Defaulting to unpruned grid for atomic number  44.
 Defaulting to unpruned grid for atomic number  44.
 Defaulting to unpruned grid for atomic number  44.
 Defaulting to unpruned grid for atomic number  44.
 Defaulting to unpruned grid for atomic number  44.
 Defaulting to unpruned grid for atomic number  44.
 Defaulting to unpruned grid for atomic number  44.
 Defaulting to unpruned grid for atomic number  44.
 Defaulting to unpruned grid for atomic number  44.
 Defaulting to unpruned grid for atomic number  44.
 Defaulting to unpruned grid for atomic number  44.
 Defaulting to unpruned grid for atomic number  44.
 Defaulting to unpruned grid for atomic number  44.
 Defaulting to unpruned grid for atomic number  44.
 Defaulting to unpruned grid for atomic number  44.
 Defaulting to unpruned grid for atomic number  44.
 Defaulting to unpruned grid for atomic number  44.
 Defaulting to unpruned grid for atomic number  44.
 Defaulting to unpruned grid for atomic number  44.
 Defaulting to unpruned grid for atomic number  44.
 Defaulting to unpruned grid for atomic number  44.
 Defaulting to unpruned grid for atomic number  44.
 Defaulting to unpruned grid for atomic number  44.
 Defaulting to unpruned grid for atomic number  44.
 Defaulting to unpruned grid for atomic number  44.
 Defaulting to unpruned grid for atomic number  44.
 Defaulting to unpruned grid for atomic number  44.
 Defaulting to unpruned grid for atomic number  44.
 Defaulting to unpruned grid for atomic number  44.
 Defaulting to unpruned grid for atomic number  44.
 Defaulting to unpruned grid for atomic number  44.
 Defaulting to unpruned grid for atomic number  44.
 Defaulting to unpruned grid for atomic number  44.
 Defaulting to unpruned grid for atomic number  44.
 Defaulting to unpruned grid for atomic number  44.
 Defaulting to unpruned grid for atomic number  44.
 Inv3:  Mode=1 IEnd=    64310700.
 Iteration    1 A*A^-1 deviation from unit magnitude is 3.55D-15 for   1241.
 Iteration    1 A*A^-1 deviation from orthogonality  is 3.33D-15 for   3175    255.
 Iteration    1 A^-1*A deviation from unit magnitude is 3.55D-15 for   1241.
 Iteration    1 A^-1*A deviation from orthogonality  is 1.89D-15 for   4628   1916.
 Error on total polarization charges =  0.07667
 SCF Done:  E(RB3LYP) =  -1999.00746946     A.U. after    1 cycles
            NFock=  1  Conv=0.17D-08     -V/T= 2.0403
 SMD-CDS (non-electrostatic) energy       (kcal/mol) =      11.63
 (included in total energy above)
 QCSCF skips out because SCF is already converged.
 DoSCS=F DFT=T ScalE2(SS,OS)=  1.000000  1.000000
 ExpMin= 3.92D-02 ExpMax= 8.00D+03 ExpMxC= 1.20D+03 IAcc=3 IRadAn=         5 AccDes= 0.00D+00
 HarFok:  IExCor=  205 AccDes= 0.00D+00 IRadAn=         5 IDoV=-2 UseB2=F ITyADJ=14
 ICtDFT= 12500011 ScaDFX=  1.000000  1.000000  1.000000  1.000000
 Defaulting to unpruned grid for atomic number  44.
 GSVD:  LWork=       -2100 too small for GESVD, short by        9450 words or        9450 for optimal perf.
 Range of M.O.s used for correlation:    43   684
 NBasis=   684 NAE=   133 NBE=   133 NFC=    42 NFV=     0
 NROrb=    642 NOA=    91 NOB=    91 NVA=   551 NVB=   551
 NEqPCM:  Using non-equilibrium solvation (IEInf=1, Eps=  78.3553, EpsInf=   1.7778)
 Inv3:  Mode=1 IEnd=    64310700.
 Iteration    1 A*A^-1 deviation from unit magnitude is 3.44D-15 for    767.
 Iteration    1 A*A^-1 deviation from orthogonality  is 2.22D-15 for   3175    255.
 Iteration    1 A^-1*A deviation from unit magnitude is 3.44D-15 for    767.
 Iteration    1 A^-1*A deviation from orthogonality  is 2.11D-15 for   4187    717.
 Orbital symmetries:
       Occupied  (A) (A) (A) (A) (A) (A) (A) (A) (A) (A) (A) (A)
                 (A) (A) (A) (A) (A) (A) (A) (A) (A) (A) (A) (A)
                 (A) (A) (A) (A) (A) (A) (A) (A) (A) (A) (A) (A)
                 (A) (A) (A) (A) (A) (A) (A) (A) (A) (A) (A) (A)
                 (A) (A) (A) (A) (A) (A) (A) (A) (A) (A) (A) (A)
                 (A) (A) (A) (A) (A) (A) (A) (A) (A) (A) (A) (A)
                 (A) (A) (A) (A) (A) (A) (A) (A) (A) (A) (A) (A)
                 (A) (A) (A) (A) (A) (A) (A) (A) (A) (A) (A) (A)
                 (A) (A) (A) (A) (A) (A) (A) (A) (A) (A) (A) (A)
                 (A) (A) (A) (A) (A) (A) (A) (A) (A) (A) (A) (A)
                 (A) (A) (A) (A) (A) (A) (A) (A) (A) (A) (A) (A)
                 (A)
       Virtual   (A) (A) (A) (A) (A) (A) (A) (A) (A) (A) (A) (A)
                 (A) (A) (A) (A) (A) (A) (A) (A) (A) (A) (A) (A)
                 (A) (A) (A) (A) (A) (A) (A) (A) (A) (A) (A) (A)
                 (A) (A) (A) (A) (A) (A) (A) (A) (A) (A) (A) (A)
                 (A) (A) (A) (A) (A) (A) (A) (A) (A) (A) (A) (A)
                 (A) (A) (A) (A) (A) (A) (A) (A) (A) (A) (A) (A)
                 (A) (A) (A) (A) (A) (A) (A) (A) (A) (A) (A) (A)
                 (A) (A) (A) (A) (A) (A) (A) (A) (A) (A) (A) (A)
                 (A) (A) (A) (A) (A) (A) (A) (A) (A) (A) (A) (A)
                 (A) (A) (A) (A) (A) (A) (A) (A) (A) (A) (A) (A)
                 (A) (A) (A) (A) (A) (A) (A) (A) (A) (A) (A) (A)
                 (A) (A) (A) (A) (A) (A) (A) (A) (A) (A) (A) (A)
                 (A) (A) (A) (A) (A) (A) (A) (A) (A) (A) (A) (A)
                 (A) (A) (A) (A) (A) (A) (A) (A) (A) (A) (A) (A)
                 (A) (A) (A) (A) (A) (A) (A) (A) (A) (A) (A) (A)
                 (A) (A) (A) (A) (A) (A) (A) (A) (A) (A) (A) (A)
                 (A) (A) (A) (A) (A) (A) (A) (A) (A) (A) (A) (A)
                 (A) (A) (A) (A) (A) (A) (A) (A) (A) (A) (A) (A)
                 (A) (A) (A) (A) (A) (A) (A) (A) (A) (A) (A) (A)
                 (A) (A) (A) (A) (A) (A) (A) (A) (A) (A) (A) (A)
                 (A) (A) (A) (A) (A) (A) (A) (A) (A) (A) (A) (A)
                 (A) (A) (A) (A) (A) (A) (A) (A) (A) (A) (A) (A)
                 (A) (A) (A) (A) (A) (A) (A) (A) (A) (A) (A) (A)
                 (A) (A) (A) (A) (A) (A) (A) (A) (A) (A) (A) (A)
                 (A) (A) (A) (A) (A) (A) (A) (A) (A) (A) (A) (A)
                 (A) (A) (A) (A) (A) (A) (A) (A) (A) (A) (A) (A)
                 (A) (A) (A) (A) (A) (A) (A) (A) (A) (A) (A) (A)
                 (A) (A) (A) (A) (A) (A) (A) (A) (A) (A) (A) (A)
                 (A) (A) (A) (A) (A) (A) (A) (A) (A) (A) (A) (A)
                 (A) (A) (A) (A) (A) (A) (A) (A) (A) (A) (A) (A)
                 (A) (A) (A) (A) (A) (A) (A) (A) (A) (A) (A) (A)
                 (A) (A) (A) (A) (A) (A) (A) (A) (A) (A) (A) (A)
                 (A) (A) (A) (A) (A) (A) (A) (A) (A) (A) (A) (A)
                 (A) (A) (A) (A) (A) (A) (A) (A) (A) (A) (A) (A)
                 (A) (A) (A) (A) (A) (A) (A) (A) (A) (A) (A) (A)
                 (A) (A) (A) (A) (A) (A) (A) (A) (A) (A) (A) (A)
                 (A) (A) (A) (A) (A) (A) (A) (A) (A) (A) (A) (A)
                 (A) (A) (A) (A) (A) (A) (A) (A) (A) (A) (A) (A)
                 (A) (A) (A) (A) (A) (A) (A) (A) (A) (A) (A) (A)
                 (A) (A) (A) (A) (A) (A) (A) (A) (A) (A) (A) (A)
                 (A) (A) (A) (A) (A) (A) (A) (A) (A) (A) (A) (A)
                 (A) (A) (A) (A) (A) (A) (A) (A) (A) (A) (A) (A)
                 (A) (A) (A) (A) (A) (A) (A) (A) (A) (A) (A) (A)
                 (A) (A) (A) (A) (A) (A) (A) (A) (A) (A) (A) (A)
                 (A) (A) (A) (A) (A) (A) (A) (A) (A) (A) (A) (A)
                 (A) (A) (A) (A) (A) (A) (A) (A) (A) (A) (A)
   200 initial guesses have been made.
 Convergence on wavefunction:    0.001000000000000
 Iteration     1 Dimension   200 NMult     0 NNew    200
 CISAX will form   108 AO SS matrices at one time.
 Defaulting to unpruned grid for atomic number  44.
 Defaulting to unpruned grid for atomic number  44.
 Defaulting to unpruned grid for atomic number  44.
 Defaulting to unpruned grid for atomic number  44.
 Defaulting to unpruned grid for atomic number  44.
 Defaulting to unpruned grid for atomic number  44.
 Defaulting to unpruned grid for atomic number  44.
 Defaulting to unpruned grid for atomic number  44.
 Defaulting to unpruned grid for atomic number  44.
 Defaulting to unpruned grid for atomic number  44.
 Defaulting to unpruned grid for atomic number  44.
 Defaulting to unpruned grid for atomic number  44.
 Defaulting to unpruned grid for atomic number  44.
 Defaulting to unpruned grid for atomic number  44.
 Defaulting to unpruned grid for atomic number  44.
 Defaulting to unpruned grid for atomic number  44.
 Defaulting to unpruned grid for atomic number  44.
 Defaulting to unpruned grid for atomic number  44.
 Defaulting to unpruned grid for atomic number  44.
 Defaulting to unpruned grid for atomic number  44.
 Defaulting to unpruned grid for atomic number  44.
 Defaulting to unpruned grid for atomic number  44.
 Defaulting to unpruned grid for atomic number  44.
 Defaulting to unpruned grid for atomic number  44.
 Defaulting to unpruned grid for atomic number  44.
 Defaulting to unpruned grid for atomic number  44.
 Defaulting to unpruned grid for atomic number  44.
 Defaulting to unpruned grid for atomic number  44.
 Defaulting to unpruned grid for atomic number  44.
 Defaulting to unpruned grid for atomic number  44.
 Defaulting to unpruned grid for atomic number  44.
 Defaulting to unpruned grid for atomic number  44.
 Defaulting to unpruned grid for atomic number  44.
 Defaulting to unpruned grid for atomic number  44.
 Defaulting to unpruned grid for atomic number  44.
 Defaulting to unpruned grid for atomic number  44.
 New state      2 was old state      5
 New state      4 was old state      2
 New state      5 was old state      8
 New state      7 was old state      4
 New state      8 was old state      9
 New state      9 was old state     12
 New state     10 was old state     11
 New state     11 was old state      7
 New state     12 was old state     13
 New state     13 was old state     18
 New state     14 was old state     16
 New state     15 was old state     10
 New state     16 was old state     14
 New state     17 was old state     25
 New state     18 was old state     28
 New state     19 was old state     31
 New state     20 was old state     17
 New state     21 was old state     19
 New state     22 was old state     24
 New state     23 was old state     15
 New state     24 was old state     21
 New state     25 was old state     26
 New state     26 was old state     34
 New state     27 was old state     23
 New state     28 was old state     30
 New state     29 was old state     42
 New state     30 was old state     29
 New state     31 was old state     33
 New state     32 was old state     39
 New state     33 was old state     41
 New state     34 was old state     35
 New state     35 was old state     32
 New state     36 was old state     54
 New state     37 was old state     47
 New state     38 was old state     36
 New state     39 was old state     37
 New state     41 was old state     44
 New state     42 was old state     38
 New state     43 was old state     65
 New state     44 was old state     56
 New state     45 was old state     43
 New state     46 was old state     55
 New state     47 was old state     45
 New state     48 was old state     59
 New state     49 was old state     50
 New state     50 was old state     60
 Iteration     2 Dimension   300 NMult   200 NNew    100
 New state      6 was old state      7
 New state      7 was old state      6
 New state     16 was old state     17
 New state     17 was old state     16
 New state     19 was old state     20
 New state     20 was old state     19
 New state     28 was old state     29
 New state     29 was old state     28
 New state     35 was old state     36
 New state     36 was old state     35
 New state     37 was old state     51
 New state     38 was old state     37
 New state     39 was old state     38
 New state     40 was old state     39
 New state     41 was old state     40
 New state     42 was old state     41
 New state     43 was old state     42
 New state     45 was old state     43
 New state     46 was old state     45
 New state     47 was old state     46
 New state     49 was old state     47
 New state     50 was old state     49
 Iteration     3 Dimension   400 NMult   300 NNew    100
 Iteration     4 Dimension   494 NMult   400 NNew     94
 Iteration     5 Dimension   528 NMult   494 NNew     34
 Iteration     6 Dimension   530 NMult   528 NNew      2
 ***********************************************************************
 Excited states from <AA,BB:AA,BB> singles matrix:
 ***********************************************************************
 
 Ground to excited state transition densities written to RWF  633
 Ground to excited state transition electric dipole moments (Au):
       state          X           Y           Z        Dip. S.      Osc.
         1         0.0046     -0.2602      0.0150      0.0680      0.0050
         2        -0.7099     -0.0181      0.0284      0.5052      0.0383
         3        -0.0532     -0.1720      0.0523      0.0352      0.0030
         4        -0.0354     -0.0439      0.0238      0.0037      0.0003
         5        -0.4880     -0.0430      0.0023      0.2400      0.0229
         6         0.1964     -0.8024      0.0563      0.6856      0.0673
         7        -0.1017     -0.0886      0.0448      0.0202      0.0020
         8         0.0052      0.0228      0.0027      0.0006      0.0001
         9         0.5483     -0.1719     -0.0103      0.3303      0.0341
        10         0.0284     -0.0121     -0.0071      0.0010      0.0001
        11         0.1115      0.1489     -0.0137      0.0348      0.0038
        12         0.0219      0.0068      0.0008      0.0005      0.0001
        13         0.0874      0.0769     -0.0531      0.0164      0.0019
        14         0.0921      0.0825     -0.0720      0.0205      0.0024
        15        -0.0768     -0.3464      0.0205      0.1263      0.0147
        16        -0.0589     -0.0573      0.0798      0.0131      0.0016
        17        -0.0195      0.0651     -0.0839      0.0117      0.0014
        18         0.0033     -0.0535     -0.0709      0.0079      0.0010
        19         0.7670      0.1041     -0.1713      0.6284      0.0783
        20         0.0116     -0.0140     -0.0798      0.0067      0.0008
        21        -0.5909     -0.0897     -0.0219      0.3577      0.0460
        22         0.3204     -0.1316      0.0707      0.1250      0.0163
        23        -0.2340      0.0800      0.1734      0.0912      0.0120
        24         0.8321     -0.1152     -0.0379      0.7072      0.0949
        25        -0.8970     -0.0174      0.0243      0.8055      0.1094
        26         0.6130      0.1095     -0.1647      0.4149      0.0568
        27        -0.0153      0.0029      0.0425      0.0020      0.0003
        28         0.9433      0.3668      0.1209      1.0389      0.1453
        29         0.1756     -0.3368      0.1125      0.1569      0.0221
        30        -0.0114      0.1639     -0.1246      0.0425      0.0060
        31         0.1042      0.0364      0.2921      0.0975      0.0139
        32        -0.2456      0.9563      0.1233      0.9899      0.1417
        33         0.3385      0.0823     -0.1629      0.1479      0.0214
        34        -0.1586     -0.5068      0.1199      0.2964      0.0431
        35        -0.2157      0.1349     -0.1583      0.0898      0.0131
        36         0.0642      0.0824      0.0677      0.0155      0.0023
        37         0.4770      0.2447      0.0685      0.2921      0.0431
        38        -0.1204     -0.0995     -0.0322      0.0254      0.0038
        39         0.2525     -0.1856     -0.0148      0.0984      0.0147
        40         0.0533      0.2551     -0.0410      0.0696      0.0104
        41         0.2880      0.1255     -0.0153      0.0989      0.0149
        42        -0.5977      0.0799      0.0823      0.3704      0.0559
        43        -0.8435     -0.0921     -0.0187      0.7203      0.1092
        44         0.0783      0.1119      0.1509      0.0414      0.0063
        45         0.0131     -0.0326      0.0179      0.0016      0.0002
        46         0.4916      0.0361      0.0976      0.2525      0.0390
        47         0.6903     -0.1347     -0.0350      0.4958      0.0768
        48         0.3886      0.0180      0.0344      0.1525      0.0237
        49         0.0284      0.0970     -0.0055      0.0102      0.0016
        50        -0.0441      0.1552      0.0654      0.0303      0.0047
 Ground to excited state transition velocity dipole moments (Au):
       state          X           Y           Z        Dip. S.      Osc.
         1        -0.0005      0.0261     -0.0018      0.0007      0.0041
         2         0.0710      0.0017     -0.0006      0.0050      0.0296
         3         0.0046      0.0181     -0.0053      0.0004      0.0020
         4         0.0037      0.0049     -0.0078      0.0001      0.0005
         5         0.0666      0.0089     -0.0010      0.0045      0.0211
         6        -0.0283      0.1091     -0.0039      0.0127      0.0576
         7         0.0119      0.0137     -0.0041      0.0003      0.0015
         8        -0.0046     -0.0068      0.0001      0.0001      0.0003
         9        -0.0839      0.0298      0.0024      0.0079      0.0342
        10        -0.0109      0.0014      0.0054      0.0002      0.0006
        11        -0.0225     -0.0236      0.0024      0.0011      0.0043
        12         0.0012      0.0122     -0.0010      0.0002      0.0006
        13        -0.0065     -0.0026      0.0042      0.0001      0.0003
        14        -0.0110     -0.0129      0.0137      0.0005      0.0018
        15         0.0140      0.0624     -0.0027      0.0041      0.0157
        16         0.0044      0.0132     -0.0121      0.0003      0.0012
        17         0.0031     -0.0102      0.0140      0.0003      0.0011
        18        -0.0090      0.0087      0.0096      0.0002      0.0009
        19        -0.1415     -0.0170      0.0293      0.0212      0.0756
        20         0.0032      0.0041      0.0211      0.0005      0.0017
        21         0.1080      0.0152      0.0068      0.0119      0.0412
        22        -0.0604      0.0253     -0.0161      0.0045      0.0155
        23         0.0380     -0.0140     -0.0326      0.0027      0.0091
        24        -0.1720      0.0242      0.0039      0.0302      0.0999
        25         0.1821      0.0057     -0.0026      0.0332      0.1086
        26        -0.1355     -0.0189      0.0319      0.0197      0.0640
        27         0.0037     -0.0006     -0.0111      0.0001      0.0004
        28        -0.1974     -0.0774     -0.0169      0.0453      0.1438
        29        -0.0340      0.0676     -0.0217      0.0062      0.0195
        30         0.0028     -0.0295      0.0121      0.0010      0.0032
        31        -0.0220     -0.0104     -0.0541      0.0035      0.0110
        32         0.0541     -0.2005     -0.0244      0.0437      0.1358
        33        -0.0784     -0.0215      0.0266      0.0073      0.0225
        34         0.0343      0.1132     -0.0231      0.0145      0.0444
        35         0.0490     -0.0331      0.0255      0.0041      0.0126
        36        -0.0140     -0.0161     -0.0161      0.0007      0.0021
        37        -0.1084     -0.0544     -0.0102      0.0148      0.0446
        38         0.0248      0.0270      0.0061      0.0014      0.0041
        39        -0.0578      0.0469      0.0018      0.0055      0.0165
        40        -0.0111     -0.0530      0.0091      0.0030      0.0090
        41        -0.0675     -0.0233     -0.0038      0.0051      0.0151
        42         0.1412     -0.0141     -0.0170      0.0204      0.0601
        43         0.1936      0.0184      0.0020      0.0378      0.1109
        44        -0.0196     -0.0241     -0.0313      0.0019      0.0056
        45        -0.0079      0.0097     -0.0045      0.0002      0.0005
        46        -0.1231     -0.0097     -0.0183      0.0156      0.0448
        47        -0.1677      0.0378      0.0079      0.0296      0.0850
        48        -0.0889     -0.0082     -0.0096      0.0081      0.0231
        49        -0.0071     -0.0228      0.0037      0.0006      0.0017
        50         0.0072     -0.0401     -0.0145      0.0019      0.0053
 Ground to excited state transition magnetic dipole moments (Au):
       state          X           Y           Z
         1         0.0432      0.3057      0.1069
         2         0.0052      0.2873     -1.1213
         3        -0.1058      0.0458     -0.1723
         4        -0.0625     -0.0511     -0.2401
         5         0.3205      0.5523      0.1112
         6        -0.2910     -0.3259      0.2130
         7         0.2824      0.1852      0.2838
         8        -0.4537      0.3645     -0.1745
         9         0.1949     -0.5450     -0.6504
        10        -0.2316      0.0279      0.2277
        11         0.1525     -0.1355      0.0226
        12         0.3102     -0.2133     -0.0814
        13         0.6989     -0.3027      0.1322
        14         0.1335     -0.1831      0.0091
        15        -0.0715     -0.0882     -0.5636
        16         0.5423      0.5144      0.2324
        17        -0.2077     -0.1648     -0.1740
        18        -0.0504      0.3499     -0.6538
        19         0.7631     -0.0659      1.9539
        20        -0.2271     -0.1958      0.7425
        21         0.0136      0.0570      0.3062
        22         0.0593      0.0625      0.4379
        23        -0.2927      0.1794     -1.0575
        24        -0.0665      0.1310     -0.4292
        25         0.0167     -0.0851      0.2783
        26        -0.1450      0.3214     -0.4007
        27        -0.0669     -0.0977     -0.0868
        28        -0.1242     -0.1680     -0.4407
        29         0.1444      0.0409      0.0324
        30         0.1172     -0.1841      0.0198
        31         0.2006      0.1237     -0.0392
        32        -0.1958     -0.1291     -0.2883
        33        -0.0714      0.2957     -0.3284
        34        -0.2019      0.1212     -0.5070
        35         0.1021     -0.2962      0.1769
        36        -0.0161     -0.1876     -0.0642
        37         0.0016      0.2886     -0.0228
        38         0.0734      0.3759      0.4160
        39        -0.1511      0.0433     -0.1606
        40         0.0211     -0.0647     -0.0121
        41         0.0204      0.3679     -0.1390
        42         0.0826     -0.0043      0.4780
        43         0.0628      0.2986      0.3464
        44         0.0660     -0.0456      0.3458
        45        -0.0368      0.1504     -0.1124
        46        -0.1300      0.1776     -0.7075
        47        -0.0438     -0.1183     -0.1996
        48         0.1304      0.1924      0.1866
        49        -0.1202      0.1944     -0.0772
        50        -0.1476      0.3194      0.1525
 Ground to excited state transition velocity quadrupole moments (Au):
       state          XX          YY          ZZ          XY          XZ          YZ
         1        -0.0247      0.1233     -0.0312     -0.0022     -0.0133      0.0085
         2        -0.0040      0.0076     -0.0019     -0.0222     -0.0128      0.0363
         3         0.0027      0.1352     -0.0415      0.0065      0.0016      0.0130
         4        -0.0100      0.0265     -0.0020     -0.0491     -0.0016      0.0240
         5        -0.0872      0.0780     -0.0204     -0.0685     -0.0730      0.0628
         6        -0.1442      0.6889     -0.1674     -0.0180      0.0044      0.0471
         7        -0.0560      0.1314     -0.0419     -0.0423     -0.0319      0.0609
         8         0.0467      0.0101     -0.0050      0.0490      0.0124     -0.0253
         9         0.0014      0.0060     -0.0387      0.1150      0.1549     -0.1003
        10         0.0816     -0.0320      0.0202      0.0137     -0.0243      0.0194
        11        -0.0966     -0.1132      0.0166     -0.0064      0.0574     -0.0160
        12         0.2560     -0.1035      0.0441     -0.0658     -0.0138     -0.0044
        13        -0.1347     -0.0056      0.0009      0.0382     -0.0306     -0.0406
        14        -0.0691     -0.0411      0.0238     -0.0208      0.0280     -0.0112
        15        -0.2184      0.3584     -0.0609      0.0680      0.0340     -0.0417
        16        -0.1043     -0.0318      0.0035     -0.0342     -0.0310      0.0813
        17         0.0490     -0.0563     -0.0349      0.0329      0.0374     -0.0647
        18        -0.0265     -0.0086      0.0645      0.1371      0.0018     -0.0610
        19         0.0202     -0.1482      0.0736     -0.3765      0.0284      0.2405
        20        -0.0122     -0.1061      0.0271     -0.1387      0.0489      0.0767
        21        -0.0801      0.2397     -0.0694     -0.1234      0.0609      0.1322
        22        -0.1181      0.0757      0.0082     -0.1185     -0.0629      0.0545
        23        -0.0705     -0.0954      0.0293      0.2795      0.0617     -0.1321
        24         0.1108     -0.0939      0.0553      0.0392     -0.0843     -0.1242
        25        -0.0276     -0.1250      0.0813     -0.0363      0.0545      0.0664
        26        -0.1136      0.0407     -0.0177      0.2719     -0.0484     -0.1389
        27        -0.1240      0.0759      0.0337     -0.0661      0.0589      0.0334
        28        -0.0418      0.1415     -0.1635      0.0909      0.0436     -0.0566
        29        -0.3069      0.6556     -0.1638     -0.1392      0.1213      0.1288
        30        -0.0405     -0.2787      0.1950     -0.1741      0.1163     -0.0302
        31         0.1795     -0.1510     -0.0622      0.0875     -0.1199      0.0015
        32         0.5898     -1.5307      0.3556     -0.1120      0.0641      0.0611
        33         0.2057     -0.0652      0.0798      0.0974      0.0408     -0.1083
        34        -0.4186      0.7394     -0.1229     -0.0795      0.1163      0.0777
        35         0.2093     -0.4869      0.1264      0.1253      0.0756     -0.1590
        36         0.2150     -0.2753      0.1519     -0.0530      0.0756     -0.0269
        37         0.3345     -0.4851      0.0853      0.0660     -0.0871     -0.0239
        38        -0.1557     -0.1122      0.0978      0.1616      0.3190      0.0593
        39        -0.3882      0.2724     -0.1356      0.0130      0.3932     -0.0267
        40         0.1046     -0.5166      0.0972      0.0440      0.2188     -0.0922
        41         0.1732     -0.0291      0.1047      0.0608     -0.0126      0.0038
        42         0.2582      0.0998      0.0904     -0.1422     -0.0440      0.0896
        43        -0.0086      0.0939     -0.0511     -0.1916     -0.2439      0.1192
        44         0.0450     -0.0797     -0.0652      0.0228      0.1090      0.0129
        45         0.3431     -0.2037      0.0815     -0.1055      0.0525      0.0204
        46         0.1760      0.0624     -0.0152      0.2755      0.2100     -0.1153
        47        -0.2333     -0.0009      0.0289      0.2979      0.1973     -0.1766
        48         0.5877      0.0084     -0.0026      0.0802      0.0316     -0.0604
        49        -0.1921      0.1892     -0.0038      0.0446     -0.0187      0.0252
        50         0.0409     -0.0387      0.0591      0.0385      0.0539      0.0355
 <0|del|b> * <b|rxdel|0> + <0|del|b> * <b|delr+rdel|0>
 Rotatory Strengths (R) in cgs (10**-40 erg-esu-cm/Gauss)
       state          XX          YY          ZZ    R(velocity)    E-M Angle
         1        26.0237     -0.6975     24.3392     16.5551       24.66
         2         3.6767     11.1600     -5.4186      3.1394       88.94
         3         4.6384      1.4352      0.8497      2.3077       71.86
         4         5.4334      3.6317     -1.5425      2.5075       56.12
         5        13.6260     62.7157     52.9729     43.1049       53.12
         6       -88.3155     14.4284    -61.1785    -45.0219      120.88
         7         4.7006      6.4944     11.1672      7.4541       54.69
         8        -5.6260      5.1103     -1.3546     -0.6234       94.60
         9       -50.5474    -22.3726    -83.1059    -52.0086      116.13
        10         3.0867      7.8135      6.1910      5.6971       18.32
        11         9.8944     -6.4533     -4.1727     -0.2439       91.45
        12        -4.9130      0.7879     -5.1784     -3.1012      117.21
        13         2.9452     -8.0607     -8.2013     -4.4389      120.54
        14         5.2377     -1.9261      0.8113      1.3743       78.27
        15       -12.7526      0.2423     -7.6988     -6.7364       97.79
        16         9.3134     -0.8741     16.3430      8.2607       63.72
        17         0.1978     -7.1770      1.6586     -1.7735      104.36
        18        -3.6785    -12.4954      5.6142     -3.5199      103.71
        19        90.5718   -139.4796   -138.7782    -62.5620       99.34
        20        21.8727     33.7127     -2.9479     17.5458       35.69
        21         2.1790     34.2314    -20.1953      5.4050       82.54
        22        -3.5605    -28.5404     -0.5422    -10.8810      107.51
        23        42.6132     49.3756    -17.0252     24.9879       68.83
        24         6.4705     54.3405    -15.4360     15.1250       80.57
        25        -2.4743     24.8434    -16.0031      2.1220       88.02
        26       -19.0986     29.2595     -7.4688      0.8974       89.40
        27         3.0250      0.1793     -0.5861      0.8727       63.24
        28        37.5686     75.2813     38.7373     50.5290       64.30
        29        -5.2123    -21.7532     17.4501     -3.1718      103.61
        30        11.6621      4.3179      4.0255      6.6685       31.16
        31        -8.5391      3.9999     -7.3240     -3.9544      104.62
        32        79.8887     -4.9114     -1.4465     24.5103       73.30
        33       -18.9634      4.4915    -16.5151    -10.3290      104.37
        34        22.8514      9.0905     28.0630     20.0017       74.07
        35        32.2398     -2.3697     32.3689     20.7463       33.49
        36         9.7629      1.2455      2.6345      4.5476       36.41
        37       -33.3450      5.3023    -21.9069    -16.6499      116.38
        38         8.0604      7.6947     30.3666     15.3739       46.28
        39       -26.3004     15.7275     43.6459     11.0243       51.21
        40        24.1258      0.4432    -14.8481      3.2403       35.65
        41       -13.4589     -1.3743    -14.7576     -9.8636      109.55
        42        -9.7590     21.5171     -0.4634      3.7649       87.01
        43        16.0338     56.4811    -15.4149     19.0333       78.20
        44       -12.0095    -17.9136     -3.9428    -11.2886      134.76
        45         2.9513      0.2468      3.6893      2.2958       27.56
        46        12.5573     73.5146     -2.9767     27.6984       72.86
        47       -16.9837     50.2931    -29.3691      1.3134       88.17
        48        -5.8850    -10.9810    -28.5294    -15.1318      123.99
        49        -7.5032      0.3369     -4.4883     -3.8849      131.57
        50       -20.2075     -3.6972    -24.5212    -16.1420      165.81
 1/2[<0|r|b>*<b|rxdel|0> + (<0|rxdel|b>*<b|r|0>)*]
 Rotatory Strengths (R) in cgs (10**-40 erg-esu-cm/Gauss)
       state          XX          YY          ZZ     R(length)
         1        -0.1412     56.2538     -1.1353     18.3258
         2         2.5940      3.6777     22.5154      9.5957
         3        -3.9811      5.5696      6.3789      2.6558
         4        -1.5644     -1.5846      4.0489      0.3000
         5       110.6149     16.7880     -0.1779     42.4083
         6        40.4103   -184.9101     -8.4830    -50.9943
         7        20.3094     11.6001     -8.9946      7.6383
         8         1.6574     -5.8799      0.3381     -1.2948
         9       -75.5736    -66.2352     -4.7328    -48.8472
        10         4.6501      0.2388      1.1381      2.0090
        11       -12.0291     14.2730      0.2195      0.8212
        12        -4.8052      1.0245      0.0471     -1.2445
        13       -43.2100     16.4557      4.9668     -7.2625
        14        -8.6956     10.6863      0.4655      0.8187
        15        -3.8841    -21.6063      8.1595     -5.7770
        16        22.6011     20.8275    -13.1159     10.1042
        17        -2.8584      7.5911    -10.3278     -1.8650
        18         0.1183     13.2430    -32.7886     -6.4757
        19      -413.8921      4.8518    236.6565    -57.4612
        20         1.8689     -1.9358     41.8775     13.9368
        21         5.6796      3.6172      4.7453      4.6807
        22       -13.4329      5.8221    -21.8843     -9.8317
        23       -48.4239    -10.1497    129.7083     23.7116
        24        39.1184     10.6753    -11.4924     12.7671
        25        10.6074     -1.0488     -4.7740      1.5949
        26        62.8442    -24.8954    -46.6724     -2.9079
        27        -0.7254      0.1977      2.6049      0.6924
        28        82.8798     43.5832     37.6723     54.7118
        29       -17.9357      9.7506     -2.5780     -3.5877
        30         0.9478     21.3298      1.7460      8.0079
        31       -14.7780     -3.1845      8.0921     -3.2902
        32       -34.0080     87.2962     25.1393     26.1425
        33        17.0919    -17.2003    -37.8270    -12.6451
        34       -22.6409     43.4286     42.9954     21.2610
        35        15.5758     28.2534     19.8013     21.2102
        36         0.7311     10.9328      3.0736      4.9125
        37        -0.5393    -49.9468      1.1048    -16.4605
        38         6.2489     26.4526      9.4734     14.0583
        39        26.9884      5.6829     -1.6832     10.3294
        40        -0.7962     11.6787     -0.3499      3.5109
        41        -4.1461    -32.6404     -1.5089    -12.7651
        42        34.9143      0.2452    -27.8081      2.4505
        43        37.4455     19.4496      4.5723     20.4891
        44        -3.6515      3.6074    -36.8903    -12.3115
        45         0.3403      3.4695      1.4235      1.7445
        46        45.2082     -4.5322     48.8466     29.8408
        47        21.3655    -11.2662     -4.9368      1.7208
        48       -35.8218     -2.4519     -4.5334    -14.2690
        49         2.4175    -13.3301     -0.2994     -3.7374
        50        -4.6045    -35.0484     -7.0510    -15.5680
  1/2[<0|del|b>*<b|r|0> + (<0|r|b>*<b|del|0>)*] (Au)
       state          X           Y           Z        Dip. S.   Osc.(frdel)
         1        -0.0000     -0.0068     -0.0000      0.0068      0.0046
         2        -0.0504     -0.0000     -0.0000      0.0505      0.0336
         3        -0.0002     -0.0031     -0.0003      0.0036      0.0024
         4        -0.0001     -0.0002     -0.0002      0.0005      0.0004
         5        -0.0325     -0.0004     -0.0000      0.0329      0.0219
         6        -0.0056     -0.0875     -0.0002      0.0933      0.0622
         7        -0.0012     -0.0012     -0.0002      0.0026      0.0017
         8        -0.0000     -0.0002      0.0000      0.0002      0.0001
         9        -0.0460     -0.0051     -0.0000      0.0512      0.0341
        10        -0.0003     -0.0000     -0.0000      0.0004      0.0002
        11        -0.0025     -0.0035     -0.0000      0.0061      0.0040
        12         0.0000      0.0001     -0.0000     -0.0001     -0.0001
        13        -0.0006     -0.0002     -0.0002      0.0010      0.0007
        14        -0.0010     -0.0011     -0.0010      0.0031      0.0020
        15        -0.0011     -0.0216     -0.0001      0.0228      0.0152
        16        -0.0003     -0.0008     -0.0010      0.0020      0.0013
        17        -0.0001     -0.0007     -0.0012      0.0019      0.0013
        18        -0.0000     -0.0005     -0.0007      0.0012      0.0008
        19        -0.1085     -0.0018     -0.0050      0.1153      0.0769
        20         0.0000     -0.0001     -0.0017      0.0017      0.0011
        21        -0.0638     -0.0014     -0.0001      0.0653      0.0435
        22        -0.0194     -0.0033     -0.0011      0.0238      0.0159
        23        -0.0089     -0.0011     -0.0057      0.0157      0.0104
        24        -0.1431     -0.0028     -0.0001      0.1461      0.0974
        25        -0.1633     -0.0001     -0.0001      0.1635      0.1090
        26        -0.0830     -0.0021     -0.0053      0.0904      0.0603
        27        -0.0001     -0.0000     -0.0005      0.0005      0.0004
        28        -0.1862     -0.0284     -0.0020      0.2167      0.1444
        29        -0.0060     -0.0228     -0.0024      0.0312      0.0208
        30        -0.0000     -0.0048     -0.0015      0.0064      0.0043
        31        -0.0023     -0.0004     -0.0158      0.0185      0.0123
        32        -0.0133     -0.1918     -0.0030      0.2081      0.1387
        33        -0.0265     -0.0018     -0.0043      0.0326      0.0218
        34        -0.0054     -0.0574     -0.0028      0.0656      0.0437
        35        -0.0106     -0.0045     -0.0040      0.0191      0.0127
        36        -0.0009     -0.0013     -0.0011      0.0033      0.0022
        37        -0.0517     -0.0133     -0.0007      0.0657      0.0438
        38        -0.0030     -0.0027     -0.0002      0.0059      0.0039
        39        -0.0146     -0.0087     -0.0000      0.0233      0.0155
        40        -0.0006     -0.0135     -0.0004      0.0145      0.0097
        41        -0.0194     -0.0029      0.0001      0.0223      0.0149
        42        -0.0844     -0.0011     -0.0014      0.0869      0.0579
        43        -0.1633     -0.0017     -0.0000      0.1650      0.1100
        44        -0.0015     -0.0027     -0.0047      0.0089      0.0060
        45        -0.0001     -0.0003     -0.0001      0.0005      0.0003
        46        -0.0605     -0.0004     -0.0018      0.0626      0.0418
        47        -0.1157     -0.0051     -0.0003      0.1211      0.0807
        48        -0.0346     -0.0001     -0.0003      0.0350      0.0234
        49        -0.0002     -0.0022     -0.0000      0.0024      0.0016
        50        -0.0003     -0.0062     -0.0009      0.0075      0.0050

 Excitation energies and oscillator strengths:
 
 Excited State   1:      Singlet-A      3.0157 eV  411.13 nm  f=0.0050  <S**2>=0.000
     133 ->134         0.70007
 This state for optimization and/or second-order correction.
 Total Energy, E(TD-HF/TD-DFT) =  -1998.89664540    
 Copying the excited state density for this state as the 1-particle RhoCI density.
 
 Excited State   2:      Singlet-A      3.0948 eV  400.62 nm  f=0.0383  <S**2>=0.000
     132 ->136        -0.10269
     133 ->135        -0.19003
     133 ->136         0.62914
     133 ->139        -0.10232
 
 Excited State   3:      Singlet-A      3.4916 eV  355.10 nm  f=0.0030  <S**2>=0.000
     132 ->134         0.70221
 
 Excited State   4:      Singlet-A      3.5913 eV  345.23 nm  f=0.0003  <S**2>=0.000
     133 ->135         0.67664
     133 ->136         0.17153
 
 Excited State   5:      Singlet-A      3.8901 eV  318.71 nm  f=0.0229  <S**2>=0.000
     131 ->134         0.13027
     132 ->135        -0.31710
     132 ->136         0.56481
     133 ->136         0.12328
     133 ->138        -0.11643
 
 Excited State   6:      Singlet-A      4.0073 eV  309.39 nm  f=0.0673  <S**2>=0.000
     131 ->134         0.67992
     132 ->136        -0.11856
 
 Excited State   7:      Singlet-A      4.0827 eV  303.68 nm  f=0.0020  <S**2>=0.000
     132 ->135         0.62547
     132 ->136         0.27671
 
 Excited State   8:      Singlet-A      4.1391 eV  299.54 nm  f=0.0001  <S**2>=0.000
     131 ->136        -0.31004
     133 ->137         0.53024
     133 ->138         0.26528
 
 Excited State   9:      Singlet-A      4.2137 eV  294.24 nm  f=0.0341  <S**2>=0.000
     131 ->135        -0.22021
     131 ->136         0.43653
     133 ->136        -0.12682
     133 ->137         0.20922
     133 ->138         0.14624
     133 ->139        -0.37523
 
 Excited State  10:      Singlet-A      4.2709 eV  290.30 nm  f=0.0001  <S**2>=0.000
     131 ->136        -0.12551
     132 ->136         0.21681
     132 ->138        -0.15214
     133 ->137        -0.36306
     133 ->138         0.45940
     133 ->139        -0.18007
 
 Excited State  11:      Singlet-A      4.4703 eV  277.35 nm  f=0.0038  <S**2>=0.000
     128 ->134        -0.13901
     131 ->135         0.58466
     133 ->138        -0.15352
     133 ->139        -0.28190
 
 Excited State  12:      Singlet-A      4.4950 eV  275.83 nm  f=0.0001  <S**2>=0.000
     131 ->135         0.22473
     131 ->136         0.28329
     131 ->138         0.11107
     132 ->137         0.14799
     132 ->138         0.11622
     132 ->139        -0.22546
     133 ->138         0.31837
     133 ->139         0.37052
 
 Excited State  13:      Singlet-A      4.6532 eV  266.45 nm  f=0.0019  <S**2>=0.000
     131 ->136        -0.24301
     131 ->137         0.12324
     131 ->138         0.19281
     131 ->139        -0.11016
     132 ->138         0.43645
     132 ->139        -0.32171
     133 ->139        -0.22417
 
 Excited State  14:      Singlet-A      4.6925 eV  264.22 nm  f=0.0024  <S**2>=0.000
     130 ->134        -0.10721
     131 ->136        -0.10328
     131 ->139        -0.10620
     132 ->137         0.53876
     132 ->138        -0.28061
     132 ->139        -0.20718
     133 ->139        -0.11771
 
 Excited State  15:      Singlet-A      4.7486 eV  261.10 nm  f=0.0147  <S**2>=0.000
     130 ->134         0.68058
 
 Excited State  16:      Singlet-A      4.9641 eV  249.76 nm  f=0.0016  <S**2>=0.000
     129 ->134         0.18208
     131 ->137         0.38830
     131 ->138         0.12841
     131 ->139        -0.32584
     132 ->137        -0.20354
     132 ->138        -0.28253
     132 ->139        -0.12491
 
 Excited State  17:      Singlet-A      5.0011 eV  247.91 nm  f=0.0014  <S**2>=0.000
     128 ->134        -0.30492
     129 ->134         0.59660
     131 ->139         0.13774
 
 Excited State  18:      Singlet-A      5.0674 eV  244.67 nm  f=0.0010  <S**2>=0.000
     131 ->137         0.10579
     131 ->138         0.50017
     132 ->137         0.21636
     132 ->139         0.35575
 
 Excited State  19:      Singlet-A      5.0832 eV  243.91 nm  f=0.0783  <S**2>=0.000
     121 ->135        -0.10593
     128 ->134         0.52569
     129 ->134         0.27320
     130 ->135        -0.16118
     131 ->135         0.16545
     131 ->139        -0.10554
     132 ->139         0.11917
 
 Excited State  20:      Singlet-A      5.1617 eV  240.20 nm  f=0.0008  <S**2>=0.000
     128 ->134         0.16417
     131 ->137         0.32219
     131 ->139         0.51842
     132 ->138        -0.10129
     132 ->139        -0.17181
 
 Excited State  21:      Singlet-A      5.2500 eV  236.16 nm  f=0.0460  <S**2>=0.000
     128 ->135         0.10795
     130 ->135         0.50085
     130 ->136        -0.25554
     133 ->140        -0.26352
     133 ->141        -0.13439
 
 Excited State  22:      Singlet-A      5.3381 eV  232.26 nm  f=0.0163  <S**2>=0.000
     127 ->134         0.44193
     130 ->135         0.27821
     130 ->136         0.16223
     133 ->140         0.33830
     133 ->141         0.20042
 
 Excited State  23:      Singlet-A      5.3572 eV  231.44 nm  f=0.0120  <S**2>=0.000
     127 ->134         0.51277
     130 ->135        -0.31406
     133 ->140        -0.25465
     133 ->141        -0.12403
 
 Excited State  24:      Singlet-A      5.4796 eV  226.26 nm  f=0.0949  <S**2>=0.000
     128 ->135        -0.10893
     128 ->136         0.15372
     129 ->135         0.32029
     129 ->136        -0.19349
     130 ->135         0.10703
     130 ->136         0.39632
     133 ->140        -0.28000
     133 ->141        -0.19469
 
 Excited State  25:      Singlet-A      5.5462 eV  223.55 nm  f=0.1094  <S**2>=0.000
     128 ->135        -0.25347
     129 ->135         0.53268
     130 ->136        -0.30675
     133 ->141         0.12322
 
 Excited State  26:      Singlet-A      5.5906 eV  221.77 nm  f=0.0568  <S**2>=0.000
     133 ->140        -0.30789
     133 ->141         0.54659
     133 ->142        -0.23713
 
 Excited State  27:      Singlet-A      5.6936 eV  217.76 nm  f=0.0003  <S**2>=0.000
     126 ->134         0.65265
     127 ->135        -0.11408
     128 ->135        -0.10809
 
 Excited State  28:      Singlet-A      5.7107 eV  217.11 nm  f=0.1453  <S**2>=0.000
     128 ->136        -0.23292
     129 ->135         0.15750
     129 ->136         0.55402
     130 ->136         0.20055
     133 ->142        -0.10744
 
 Excited State  29:      Singlet-A      5.7524 eV  215.53 nm  f=0.0221  <S**2>=0.000
     125 ->134        -0.12842
     126 ->134        -0.19519
     127 ->135        -0.34584
     127 ->136         0.41276
     128 ->135        -0.24513
     128 ->136         0.13615
 
 Excited State  30:      Singlet-A      5.7815 eV  214.45 nm  f=0.0060  <S**2>=0.000
     124 ->134         0.16924
     125 ->134         0.43371
     127 ->136         0.16998
     128 ->135         0.10881
     131 ->137         0.17446
     131 ->138        -0.15111
     132 ->138         0.11245
     132 ->139         0.11542
     132 ->140        -0.13080
     132 ->141        -0.13672
     133 ->142        -0.17112
 
 Excited State  31:      Singlet-A      5.8037 eV  213.63 nm  f=0.0139  <S**2>=0.000
     124 ->134         0.13507
     125 ->134         0.38190
     126 ->134         0.10625
     127 ->136         0.12573
     128 ->135         0.12151
     130 ->138         0.12165
     131 ->137        -0.19995
     131 ->138         0.19248
     132 ->137        -0.11158
     132 ->138        -0.14049
     132 ->139        -0.13552
     132 ->141         0.12893
     133 ->142         0.20903
 
 Excited State  32:      Singlet-A      5.8446 eV  212.13 nm  f=0.1417  <S**2>=0.000
     121 ->134         0.13693
     125 ->134        -0.23054
     127 ->135         0.10185
     127 ->136         0.27603
     128 ->135         0.45638
     129 ->135         0.19656
     130 ->135        -0.11539
     132 ->140        -0.12674
 
 Excited State  33:      Singlet-A      5.8975 eV  210.23 nm  f=0.0214  <S**2>=0.000
     127 ->135         0.10966
     129 ->136         0.18399
     131 ->137         0.13949
     131 ->138        -0.12355
     132 ->140        -0.12972
     133 ->140        -0.16452
     133 ->142         0.48645
     133 ->143         0.18035
 
 Excited State  34:      Singlet-A      5.9292 eV  209.11 nm  f=0.0431  <S**2>=0.000
     127 ->135         0.51959
     127 ->136         0.14663
     128 ->135        -0.16841
     128 ->136         0.29856
     129 ->135        -0.11384
     133 ->142        -0.11842
 
 Excited State  35:      Singlet-A      5.9712 eV  207.64 nm  f=0.0131  <S**2>=0.000
     127 ->136         0.12707
     128 ->135         0.10079
     128 ->136         0.24438
     129 ->136         0.12885
     130 ->137         0.14501
     130 ->138        -0.19745
     132 ->140         0.48298
     132 ->141         0.15543
     132 ->142         0.11009
 
 Excited State  36:      Singlet-A      6.0240 eV  205.82 nm  f=0.0023  <S**2>=0.000
     124 ->134         0.64829
     125 ->134        -0.24686
 
 Excited State  37:      Singlet-A      6.0294 eV  205.63 nm  f=0.0431  <S**2>=0.000
     127 ->135        -0.18213
     127 ->136        -0.28850
     128 ->135         0.10952
     128 ->136         0.46443
     129 ->136         0.22375
     132 ->140        -0.19158
 
 Excited State  38:      Singlet-A      6.0649 eV  204.43 nm  f=0.0038  <S**2>=0.000
     128 ->137         0.11890
     130 ->137         0.46977
     132 ->140        -0.23924
     132 ->141         0.28185
     133 ->143        -0.12299
     133 ->144         0.18449
 
 Excited State  39:      Singlet-A      6.0967 eV  203.36 nm  f=0.0147  <S**2>=0.000
     123 ->134        -0.36975
     126 ->136        -0.10965
     130 ->137        -0.22823
     132 ->141         0.11977
     133 ->142         0.10765
     133 ->143        -0.22838
     133 ->144         0.38124
     133 ->145        -0.12283
 
 Excited State  40:      Singlet-A      6.1127 eV  202.83 nm  f=0.0104  <S**2>=0.000
     123 ->134         0.54905
     126 ->135         0.13597
     126 ->136        -0.13471
     130 ->137        -0.19297
     133 ->143        -0.14165
     133 ->144         0.18369
 
 Excited State  41:      Singlet-A      6.1303 eV  202.25 nm  f=0.0149  <S**2>=0.000
     130 ->137        -0.25651
     130 ->138        -0.20631
     132 ->140        -0.12107
     132 ->141         0.47708
     133 ->143         0.20165
     133 ->144        -0.19022
 
 Excited State  42:      Singlet-A      6.1657 eV  201.09 nm  f=0.0559  <S**2>=0.000
     126 ->135         0.22735
     126 ->136        -0.20362
     130 ->139         0.10590
     133 ->142        -0.18712
     133 ->143         0.47622
     133 ->144         0.16996
     133 ->145        -0.21105
 
 Excited State  43:      Singlet-A      6.1887 eV  200.34 nm  f=0.1092  <S**2>=0.000
     123 ->134        -0.11480
     126 ->135         0.42302
     126 ->136        -0.30474
     127 ->136        -0.10042
     130 ->136        -0.10194
     132 ->141         0.11039
     133 ->143        -0.17327
     133 ->144        -0.23291
     133 ->145         0.19382
 
 Excited State  44:      Singlet-A      6.2569 eV  198.16 nm  f=0.0063  <S**2>=0.000
     128 ->139         0.11180
     130 ->138        -0.32554
     130 ->139         0.48720
     132 ->140        -0.10358
     133 ->143        -0.14643
     133 ->144        -0.13853
 
 Excited State  45:      Singlet-A      6.2899 eV  197.12 nm  f=0.0002  <S**2>=0.000
     124 ->135         0.11728
     125 ->135         0.28780
     126 ->135        -0.24081
     126 ->136        -0.20247
     133 ->143         0.12967
     133 ->144         0.19951
     133 ->145         0.38270
 
 Excited State  46:      Singlet-A      6.3104 eV  196.48 nm  f=0.0390  <S**2>=0.000
     124 ->135        -0.13237
     125 ->135        -0.37349
     126 ->135         0.12380
     126 ->136         0.16260
     130 ->138        -0.13545
     131 ->140         0.12236
     133 ->144         0.20643
     133 ->145         0.39200
 
 Excited State  47:      Singlet-A      6.3189 eV  196.21 nm  f=0.0768  <S**2>=0.000
     125 ->135         0.25861
     126 ->135         0.36502
     126 ->136         0.38296
     130 ->138         0.10419
     130 ->139         0.12843
     131 ->140        -0.15250
     131 ->141        -0.13700
 
 Excited State  48:      Singlet-A      6.3426 eV  195.48 nm  f=0.0237  <S**2>=0.000
     125 ->135         0.32891
     130 ->138        -0.20478
     130 ->139        -0.18153
     131 ->140         0.38487
     131 ->141         0.27175
 
 Excited State  49:      Singlet-A      6.3817 eV  194.28 nm  f=0.0016  <S**2>=0.000
     121 ->134        -0.32672
     122 ->134         0.52601
     129 ->137         0.18309
     132 ->142         0.15949
 
 Excited State  50:      Singlet-A      6.3895 eV  194.04 nm  f=0.0047  <S**2>=0.000
     121 ->134         0.10989
     122 ->134        -0.21310
     132 ->140        -0.15478
     132 ->142         0.53804
     132 ->143         0.21780
 SavETr:  write IOETrn=   770 NScale= 10 NData=  16 NLR=1 NState=   50 LETran=     910.

 **********************************************************************

            Population analysis using the SCF Density.

 **********************************************************************

 Orbital symmetries:
       Occupied  (A) (A) (A) (A) (A) (A) (A) (A) (A) (A) (A) (A)
                 (A) (A) (A) (A) (A) (A) (A) (A) (A) (A) (A) (A)
                 (A) (A) (A) (A) (A) (A) (A) (A) (A) (A) (A) (A)
                 (A) (A) (A) (A) (A) (A) (A) (A) (A) (A) (A) (A)
                 (A) (A) (A) (A) (A) (A) (A) (A) (A) (A) (A) (A)
                 (A) (A) (A) (A) (A) (A) (A) (A) (A) (A) (A) (A)
                 (A) (A) (A) (A) (A) (A) (A) (A) (A) (A) (A) (A)
                 (A) (A) (A) (A) (A) (A) (A) (A) (A) (A) (A) (A)
                 (A) (A) (A) (A) (A) (A) (A) (A) (A) (A) (A) (A)
                 (A) (A) (A) (A) (A) (A) (A) (A) (A) (A) (A) (A)
                 (A) (A) (A) (A) (A) (A) (A) (A) (A) (A) (A) (A)
                 (A)
       Virtual   (A) (A) (A) (A) (A) (A) (A) (A) (A) (A) (A) (A)
                 (A) (A) (A) (A) (A) (A) (A) (A) (A) (A) (A) (A)
                 (A) (A) (A) (A) (A) (A) (A) (A) (A) (A) (A) (A)
                 (A) (A) (A) (A) (A) (A) (A) (A) (A) (A) (A) (A)
                 (A) (A) (A) (A) (A) (A) (A) (A) (A) (A) (A) (A)
                 (A) (A) (A) (A) (A) (A) (A) (A) (A) (A) (A) (A)
                 (A) (A) (A) (A) (A) (A) (A) (A) (A) (A) (A) (A)
                 (A) (A) (A) (A) (A) (A) (A) (A) (A) (A) (A) (A)
                 (A) (A) (A) (A) (A) (A) (A) (A) (A) (A) (A) (A)
                 (A) (A) (A) (A) (A) (A) (A) (A) (A) (A) (A) (A)
                 (A) (A) (A) (A) (A) (A) (A) (A) (A) (A) (A) (A)
                 (A) (A) (A) (A) (A) (A) (A) (A) (A) (A) (A) (A)
                 (A) (A) (A) (A) (A) (A) (A) (A) (A) (A) (A) (A)
                 (A) (A) (A) (A) (A) (A) (A) (A) (A) (A) (A) (A)
                 (A) (A) (A) (A) (A) (A) (A) (A) (A) (A) (A) (A)
                 (A) (A) (A) (A) (A) (A) (A) (A) (A) (A) (A) (A)
                 (A) (A) (A) (A) (A) (A) (A) (A) (A) (A) (A) (A)
                 (A) (A) (A) (A) (A) (A) (A) (A) (A) (A) (A) (A)
                 (A) (A) (A) (A) (A) (A) (A) (A) (A) (A) (A) (A)
                 (A) (A) (A) (A) (A) (A) (A) (A) (A) (A) (A) (A)
                 (A) (A) (A) (A) (A) (A) (A) (A) (A) (A) (A) (A)
                 (A) (A) (A) (A) (A) (A) (A) (A) (A) (A) (A) (A)
                 (A) (A) (A) (A) (A) (A) (A) (A) (A) (A) (A) (A)
                 (A) (A) (A) (A) (A) (A) (A) (A) (A) (A) (A) (A)
                 (A) (A) (A) (A) (A) (A) (A) (A) (A) (A) (A) (A)
                 (A) (A) (A) (A) (A) (A) (A) (A) (A) (A) (A) (A)
                 (A) (A) (A) (A) (A) (A) (A) (A) (A) (A) (A) (A)
                 (A) (A) (A) (A) (A) (A) (A) (A) (A) (A) (A) (A)
                 (A) (A) (A) (A) (A) (A) (A) (A) (A) (A) (A) (A)
                 (A) (A) (A) (A) (A) (A) (A) (A) (A) (A) (A) (A)
                 (A) (A) (A) (A) (A) (A) (A) (A) (A) (A) (A) (A)
                 (A) (A) (A) (A) (A) (A) (A) (A) (A) (A) (A) (A)
                 (A) (A) (A) (A) (A) (A) (A) (A) (A) (A) (A) (A)
                 (A) (A) (A) (A) (A) (A) (A) (A) (A) (A) (A) (A)
                 (A) (A) (A) (A) (A) (A) (A) (A) (A) (A) (A) (A)
                 (A) (A) (A) (A) (A) (A) (A) (A) (A) (A) (A) (A)
                 (A) (A) (A) (A) (A) (A) (A) (A) (A) (A) (A) (A)
                 (A) (A) (A) (A) (A) (A) (A) (A) (A) (A) (A) (A)
                 (A) (A) (A) (A) (A) (A) (A) (A) (A) (A) (A) (A)
                 (A) (A) (A) (A) (A) (A) (A) (A) (A) (A) (A) (A)
                 (A) (A) (A) (A) (A) (A) (A) (A) (A) (A) (A) (A)
                 (A) (A) (A) (A) (A) (A) (A) (A) (A) (A) (A) (A)
                 (A) (A) (A) (A) (A) (A) (A) (A) (A) (A) (A) (A)
                 (A) (A) (A) (A) (A) (A) (A) (A) (A) (A) (A) (A)
                 (A) (A) (A) (A) (A) (A) (A) (A) (A) (A) (A) (A)
                 (A) (A) (A) (A) (A) (A) (A) (A) (A) (A) (A)
 The electronic state is 1-A.
 Alpha  occ. eigenvalues --  -77.07545 -77.07427 -19.17322 -19.06795 -19.05840
 Alpha  occ. eigenvalues --  -14.37130 -10.26177 -10.24629 -10.24621 -10.20964
 Alpha  occ. eigenvalues --  -10.20480 -10.20464 -10.20354 -10.20119 -10.19904
 Alpha  occ. eigenvalues --  -10.19893 -10.19456 -10.19235 -10.17360 -10.17323
 Alpha  occ. eigenvalues --  -10.17300 -10.17225 -10.17214 -10.17203 -10.17168
 Alpha  occ. eigenvalues --  -10.17162 -10.17029 -10.16946 -10.16645 -10.16536
 Alpha  occ. eigenvalues --   -6.56739  -6.56600  -4.73366  -4.73304  -4.73239
 Alpha  occ. eigenvalues --   -4.73163  -4.73022  -4.72878  -3.00935  -1.85640
 Alpha  occ. eigenvalues --   -1.84295  -1.84280  -1.07760  -0.96207  -0.88534
 Alpha  occ. eigenvalues --   -0.87290  -0.82275  -0.81572  -0.80504  -0.80079
 Alpha  occ. eigenvalues --   -0.79424  -0.79194  -0.73812  -0.70056  -0.67886
 Alpha  occ. eigenvalues --   -0.67748  -0.67654  -0.67388  -0.66950  -0.66743
 Alpha  occ. eigenvalues --   -0.66659  -0.66501  -0.64113  -0.63015  -0.59919
 Alpha  occ. eigenvalues --   -0.59687  -0.54180  -0.53962  -0.53780  -0.51672
 Alpha  occ. eigenvalues --   -0.51560  -0.50324  -0.49739  -0.47103  -0.46997
 Alpha  occ. eigenvalues --   -0.45925  -0.45352  -0.44818  -0.44611  -0.44379
 Alpha  occ. eigenvalues --   -0.44244  -0.43908  -0.43722  -0.43444  -0.43013
 Alpha  occ. eigenvalues --   -0.42720  -0.42465  -0.42297  -0.42122  -0.41679
 Alpha  occ. eigenvalues --   -0.41550  -0.41214  -0.40859  -0.39663  -0.39299
 Alpha  occ. eigenvalues --   -0.38928  -0.38745  -0.38371  -0.37768  -0.37431
 Alpha  occ. eigenvalues --   -0.37256  -0.37179  -0.37050  -0.36865  -0.36598
 Alpha  occ. eigenvalues --   -0.36052  -0.35749  -0.35521  -0.35437  -0.35072
 Alpha  occ. eigenvalues --   -0.34351  -0.34017  -0.33791  -0.33472  -0.32909
 Alpha  occ. eigenvalues --   -0.32663  -0.32178  -0.32066  -0.31762  -0.31618
 Alpha  occ. eigenvalues --   -0.30708  -0.30662  -0.29281  -0.29020  -0.28581
 Alpha  occ. eigenvalues --   -0.27828  -0.26831  -0.25633  -0.25594  -0.24796
 Alpha  occ. eigenvalues --   -0.21899  -0.20262  -0.18380
 Alpha virt. eigenvalues --   -0.04513  -0.02655  -0.00954   0.01523   0.02036
 Alpha virt. eigenvalues --    0.02604   0.04953   0.05354   0.06224   0.06426
 Alpha virt. eigenvalues --    0.07096   0.07632   0.08033   0.08292   0.08506
 Alpha virt. eigenvalues --    0.08847   0.09118   0.09638   0.09913   0.10236
 Alpha virt. eigenvalues --    0.10657   0.10670   0.11175   0.11369   0.11862
 Alpha virt. eigenvalues --    0.12343   0.12398   0.13357   0.13540   0.13626
 Alpha virt. eigenvalues --    0.13874   0.13976   0.14319   0.14476   0.14572
 Alpha virt. eigenvalues --    0.14910   0.15237   0.15735   0.16411   0.16499
 Alpha virt. eigenvalues --    0.16888   0.17186   0.17488   0.17616   0.17885
 Alpha virt. eigenvalues --    0.17924   0.18245   0.18511   0.18664   0.19476
 Alpha virt. eigenvalues --    0.20128   0.20177   0.20401   0.20989   0.21023
 Alpha virt. eigenvalues --    0.21467   0.21589   0.21764   0.21952   0.22027
 Alpha virt. eigenvalues --    0.22813   0.22943   0.23967   0.24365   0.24620
 Alpha virt. eigenvalues --    0.24893   0.25232   0.25439   0.25839   0.26493
 Alpha virt. eigenvalues --    0.27178   0.27504   0.27891   0.29143   0.29517
 Alpha virt. eigenvalues --    0.30588   0.30765   0.31111   0.33026   0.33490
 Alpha virt. eigenvalues --    0.34346   0.35472   0.36998   0.37204   0.38306
 Alpha virt. eigenvalues --    0.39134   0.39860   0.40460   0.40801   0.41067
 Alpha virt. eigenvalues --    0.41656   0.42364   0.42486   0.43233   0.43637
 Alpha virt. eigenvalues --    0.43873   0.44097   0.44985   0.45422   0.45684
 Alpha virt. eigenvalues --    0.46340   0.47091   0.47181   0.47741   0.49464
 Alpha virt. eigenvalues --    0.49792   0.50060   0.51152   0.51921   0.52900
 Alpha virt. eigenvalues --    0.53494   0.53666   0.53929   0.54472   0.55086
 Alpha virt. eigenvalues --    0.55615   0.55828   0.56221   0.56722   0.56876
 Alpha virt. eigenvalues --    0.57653   0.58590   0.58734   0.58873   0.59455
 Alpha virt. eigenvalues --    0.59860   0.60168   0.60737   0.61220   0.61469
 Alpha virt. eigenvalues --    0.61876   0.62200   0.62595   0.63145   0.63305
 Alpha virt. eigenvalues --    0.63746   0.64139   0.64240   0.64541   0.64863
 Alpha virt. eigenvalues --    0.64999   0.65459   0.65626   0.65706   0.65918
 Alpha virt. eigenvalues --    0.66204   0.66429   0.66632   0.66940   0.66976
 Alpha virt. eigenvalues --    0.67522   0.67799   0.68278   0.68315   0.68541
 Alpha virt. eigenvalues --    0.68718   0.68897   0.69192   0.69603   0.69674
 Alpha virt. eigenvalues --    0.70053   0.70222   0.70568   0.70696   0.71020
 Alpha virt. eigenvalues --    0.71386   0.71692   0.71899   0.72134   0.72847
 Alpha virt. eigenvalues --    0.72905   0.73071   0.73254   0.73493   0.73650
 Alpha virt. eigenvalues --    0.73947   0.74001   0.74272   0.75176   0.75300
 Alpha virt. eigenvalues --    0.75529   0.75836   0.76171   0.76514   0.76894
 Alpha virt. eigenvalues --    0.76950   0.77859   0.78029   0.78535   0.78854
 Alpha virt. eigenvalues --    0.79379   0.79723   0.80182   0.80784   0.80938
 Alpha virt. eigenvalues --    0.81300   0.81816   0.82076   0.82517   0.82979
 Alpha virt. eigenvalues --    0.83152   0.83724   0.84178   0.84749   0.84777
 Alpha virt. eigenvalues --    0.85505   0.86156   0.86839   0.87285   0.88558
 Alpha virt. eigenvalues --    0.88699   0.89440   0.90266   0.91276   0.92437
 Alpha virt. eigenvalues --    0.92788   0.93313   0.93772   0.95151   0.96853
 Alpha virt. eigenvalues --    0.97083   0.97313   0.98642   0.99702   1.01159
 Alpha virt. eigenvalues --    1.01763   1.01883   1.03587   1.04257   1.04921
 Alpha virt. eigenvalues --    1.05654   1.05946   1.06530   1.07037   1.07708
 Alpha virt. eigenvalues --    1.08275   1.08690   1.09703   1.10128   1.10564
 Alpha virt. eigenvalues --    1.12064   1.13695   1.14396   1.15266   1.16231
 Alpha virt. eigenvalues --    1.16679   1.17335   1.17989   1.19319   1.19570
 Alpha virt. eigenvalues --    1.20783   1.21296   1.21647   1.22054   1.22592
 Alpha virt. eigenvalues --    1.23497   1.23923   1.24451   1.25078   1.25357
 Alpha virt. eigenvalues --    1.26664   1.27014   1.27537   1.27924   1.28492
 Alpha virt. eigenvalues --    1.29110   1.29853   1.30687   1.31089   1.31426
 Alpha virt. eigenvalues --    1.33494   1.34169   1.34701   1.35199   1.38589
 Alpha virt. eigenvalues --    1.38847   1.40098   1.42697   1.43612   1.44372
 Alpha virt. eigenvalues --    1.47140   1.48833   1.49752   1.50953   1.51263
 Alpha virt. eigenvalues --    1.51588   1.52608   1.53289   1.53682   1.54147
 Alpha virt. eigenvalues --    1.54561   1.54807   1.55134   1.55641   1.55867
 Alpha virt. eigenvalues --    1.56221   1.56523   1.56883   1.57425   1.57609
 Alpha virt. eigenvalues --    1.58042   1.58449   1.59029   1.59210   1.59550
 Alpha virt. eigenvalues --    1.59955   1.60639   1.60807   1.61211   1.61678
 Alpha virt. eigenvalues --    1.61852   1.62788   1.63398   1.64529   1.65072
 Alpha virt. eigenvalues --    1.65637   1.66338   1.67156   1.67646   1.68223
 Alpha virt. eigenvalues --    1.68945   1.69501   1.70668   1.71518   1.72032
 Alpha virt. eigenvalues --    1.72355   1.73464   1.74511   1.75817   1.76075
 Alpha virt. eigenvalues --    1.76736   1.77349   1.77525   1.77754   1.77815
 Alpha virt. eigenvalues --    1.78329   1.78801   1.79107   1.79657   1.79798
 Alpha virt. eigenvalues --    1.80175   1.80543   1.80624   1.81552   1.81646
 Alpha virt. eigenvalues --    1.82319   1.82896   1.83148   1.83663   1.83896
 Alpha virt. eigenvalues --    1.84236   1.84525   1.84796   1.85281   1.85521
 Alpha virt. eigenvalues --    1.85898   1.86175   1.86593   1.87054   1.87188
 Alpha virt. eigenvalues --    1.87845   1.88368   1.89085   1.89944   1.90186
 Alpha virt. eigenvalues --    1.90816   1.91110   1.91359   1.91645   1.92367
 Alpha virt. eigenvalues --    1.93045   1.93217   1.93450   1.93706   1.94054
 Alpha virt. eigenvalues --    1.94203   1.94538   1.95058   1.95327   1.95784
 Alpha virt. eigenvalues --    1.96087   1.96385   1.96834   1.97145   1.97852
 Alpha virt. eigenvalues --    1.98363   1.98542   1.99426   1.99632   2.00399
 Alpha virt. eigenvalues --    2.00886   2.01291   2.01808   2.01969   2.02501
 Alpha virt. eigenvalues --    2.02958   2.03092   2.03514   2.04376   2.04418
 Alpha virt. eigenvalues --    2.04905   2.07814   2.08680   2.09113   2.09544
 Alpha virt. eigenvalues --    2.10748   2.12216   2.15248   2.15795   2.16285
 Alpha virt. eigenvalues --    2.16701   2.17005   2.17753   2.17808   2.18331
 Alpha virt. eigenvalues --    2.18448   2.18859   2.19574   2.19981   2.20271
 Alpha virt. eigenvalues --    2.20795   2.20931   2.21604   2.21955   2.23100
 Alpha virt. eigenvalues --    2.23466   2.23719   2.24226   2.24796   2.25357
 Alpha virt. eigenvalues --    2.25923   2.27983   2.28670   2.30431   2.30820
 Alpha virt. eigenvalues --    2.32785   2.35867   2.37443   2.38352   2.39016
 Alpha virt. eigenvalues --    2.39421   2.39891   2.40302   2.41177   2.41224
 Alpha virt. eigenvalues --    2.41647   2.42166   2.42622   2.42864   2.42982
 Alpha virt. eigenvalues --    2.43514   2.44411   2.45455   2.46019   2.46909
 Alpha virt. eigenvalues --    2.48008   2.49124   2.49274   2.50773   2.51822
 Alpha virt. eigenvalues --    2.52675   2.55276   2.55666   2.55967   2.56224
 Alpha virt. eigenvalues --    2.56463   2.56562   2.57027   2.57477   2.58460
 Alpha virt. eigenvalues --    2.61411   2.62142   2.62370   2.62710   2.62878
 Alpha virt. eigenvalues --    2.63529   2.63641   2.63917   2.64186   2.64507
 Alpha virt. eigenvalues --    2.64658   2.65304   2.65570   2.65806   2.66088
 Alpha virt. eigenvalues --    2.67901   2.69116   2.72686   2.73008   2.73096
 Alpha virt. eigenvalues --    2.73898   2.74155   2.75793   2.77339   2.79810
 Alpha virt. eigenvalues --    2.80308   2.82288   2.85015   2.86149   2.87450
 Alpha virt. eigenvalues --    2.87722   2.87883   2.88187   2.88912   2.89543
 Alpha virt. eigenvalues --    2.89925   2.90174   2.91414   2.91448   2.92807
 Alpha virt. eigenvalues --    2.93111   2.93367   2.93777   2.94426   2.94849
 Alpha virt. eigenvalues --    2.95532   2.95999   2.96824   2.96937   2.97000
 Alpha virt. eigenvalues --    2.97322   2.98472   2.98960   2.99456   2.99983
 Alpha virt. eigenvalues --    3.02149   3.02533   3.02668   3.03467   3.03976
 Alpha virt. eigenvalues --    3.06289   3.07115   3.07716   3.07874   3.08115
 Alpha virt. eigenvalues --    3.08983   3.09487   3.10087   3.10473   3.11858
 Alpha virt. eigenvalues --    3.12247   3.12592   3.15315   3.20252   3.21348
 Alpha virt. eigenvalues --    3.33504   3.59699   3.74306   3.81957   3.88765
 Alpha virt. eigenvalues --   45.30193
          Condensed to atoms (all electrons):
 Mulliken charges:
               1
     1  P    0.329974
     2  N   -0.191793
     3  C    0.023546
     4  H    0.059995
     5  H    0.090621
     6  O   -0.516459
     7  P    0.317127
     8  C    0.019883
     9  C   -0.006182
    10  H    0.013965
    11  C    0.076246
    12  H    0.025913
    13  C   -0.004378
    14  H    0.014127
    15  C    0.018742
    16  C    0.013878
    17  H    0.060216
    18  H    0.094300
    19  Ru  -0.296013
    20  H    0.165002
    21  C   -0.372009
    22  C   -0.386671
    23  C   -0.384425
    24  C   -0.387929
    25  C    0.065926
    26  H    0.023029
    27  H    0.049794
    28  H    0.016323
    29  C    0.081543
    30  H    0.012122
    31  H    0.033354
    32  H    0.009502
    33  C    0.080325
    34  H    0.010119
    35  H    0.032961
    36  H    0.026344
    37  C    0.082961
    38  H    0.009782
    39  H    0.012611
    40  H    0.021908
    41  C    0.069064
    42  H    0.013927
    43  H    0.034090
    44  H    0.034314
    45  C    0.066463
    46  H    0.012378
    47  H    0.027935
    48  H    0.012573
    49  C    0.077796
    50  H    0.006403
    51  H    0.002598
    52  H    0.004499
    53  C    0.082497
    54  H    0.007226
    55  H    0.030171
    56  H    0.025910
    57  C    0.064397
    58  H    0.014777
    59  H    0.051265
    60  H    0.008262
    61  C    0.081819
    62  H    0.038390
    63  H    0.018346
    64  H    0.010430
    65  C    0.080856
    66  H    0.009252
    67  H    0.011745
    68  H    0.021494
    69  C    0.070127
    70  H    0.012539
    71  H    0.035513
    72  H    0.029886
    73  O   -0.510652
    74  C    0.068062
    75  H    0.182880
    76  O   -0.153515
 Sum of Mulliken charges =  -0.00000
 Mulliken charges with hydrogens summed into heavy atoms:
               1
     1  P    0.329974
     2  N   -0.191793
     3  C    0.174162
     6  O   -0.351457
     7  P    0.317127
     8  C    0.019883
     9  C    0.007783
    11  C    0.102159
    13  C    0.009749
    15  C    0.018742
    16  C    0.168394
    19  Ru  -0.296013
    21  C   -0.372009
    22  C   -0.386671
    23  C   -0.384425
    24  C   -0.387929
    25  C    0.155072
    29  C    0.136521
    33  C    0.149748
    37  C    0.127262
    41  C    0.151395
    45  C    0.119349
    49  C    0.091296
    53  C    0.145804
    57  C    0.138701
    61  C    0.148985
    65  C    0.123347
    69  C    0.148066
    73  O   -0.327771
    74  C    0.068062
    76  O   -0.153515
 Electronic spatial extent (au):  <R**2>=          13428.6015
 Charge=             -0.0000 electrons
 Dipole moment (field-independent basis, Debye):
    X=              0.8903    Y=             11.5059    Z=              0.7226  Tot=             11.5629
 Quadrupole moment (field-independent basis, Debye-Ang):
   XX=           -175.1139   YY=           -215.3509   ZZ=           -232.5505
   XY=             -0.0677   XZ=             -8.8810   YZ=              6.7103
 Traceless Quadrupole moment (field-independent basis, Debye-Ang):
   XX=             32.5579   YY=             -7.6791   ZZ=            -24.8787
   XY=             -0.0677   XZ=             -8.8810   YZ=              6.7103
 Octapole moment (field-independent basis, Debye-Ang**2):
  XXX=             10.6450  YYY=            119.8393  ZZZ=            -15.3263  XYY=             -0.6198
  XXY=             -8.7978  XXZ=              1.0375  XZZ=              8.2744  YZZ=            -12.6286
  YYZ=             -6.7793  XYZ=             -0.9589
 Hexadecapole moment (field-independent basis, Debye-Ang**3):
 XXXX=         -10380.0411 YYYY=          -3833.3072 ZZZZ=          -3423.8300 XXXY=             -3.9278
 XXXZ=            -39.1787 YYYX=             10.4230 YYYZ=             34.6703 ZZZX=            -29.5800
 ZZZY=             52.8030 XXYY=          -2388.5323 XXZZ=          -2273.3659 YYZZ=          -1243.7580
 XXYZ=              5.4715 YYXZ=            -70.0557 ZZXY=            -10.5890
 N-N= 4.529307679104D+03 E-N=-1.371505436801D+04  KE= 1.921486165135D+03
 Unable to Open any file for archive entry.
 1\1\GINC-NODE222\SP\RB3LYP TD-FC\def2SVP\C24H45N1O3P2Ru1\DO57CIG\17-Ju
 l-2024\0\\# td=(singlets,nstates=50,conver=3) b3lyp scrf=(smd,solvent=
 water) def2svp empiricaldispersion=gd3bj int=ultrafine scf=xqc guess=r
 ead geom=check\\A_Ru_Cis_straight_CO_DFT_B3LYP_def2svp_smd_water_S_Sin
 g_to_Sing\\0,1\P,0,2.3994573304,-0.2134475494,-0.1306810836\N,0,0.0194
 979247,1.5671668536,-0.1153348038\C,0,2.2627507278,1.3610728783,-1.105
 0972645\H,0,3.1865888748,1.9546939722,-1.0973172965\H,0,2.0830358754,1
 .0338511377,-2.1410252597\O,0,-0.0084392702,-0.5786522143,-2.074239774
 6\P,0,-2.399518571,-0.1386611739,0.0645939644\C,0,1.0952384861,2.19464
 19083,-0.6536277555\C,0,1.1213736583,3.5855287184,-0.7825697088\H,0,2.
 0010604095,4.0625518328,-1.2160178514\C,0,0.032837476,4.3369023444,-0.
 3473658028\H,0,0.0395352979,5.4252534051,-0.4356735974\C,0,-1.06669212
 97,3.678594771,0.1997414385\H,0,-1.9430797476,4.2295865802,0.542443120
 5\C,0,-1.054766517,2.286579857,0.2997252115\C,0,-2.2368303268,1.539291
 3479,0.8537135046\H,0,-3.1475862944,2.147742934,0.7748113628\H,0,-2.06
 69710423,1.3397187747,1.9250794826\Ru,0,-0.0004656901,-0.5493686141,0.
 0302338998\H,0,0.5232414213,-1.3429797467,-2.320325429\C,0,-3.27771813
 46,0.2049760109,-1.5960064185\C,0,-3.5816619486,-1.0867428831,1.226358
 8616\C,0,3.5442742795,-1.3215722845,-1.1859293515\C,0,3.3184156456,0.3
 155481634,1.458302267\C,0,2.5792938398,1.5356132702,2.0445468826\H,0,2
 .7049161822,2.4257357293,1.413126618\H,0,1.5075086632,1.3734671768,2.1
 970988319\H,0,3.0230103839,1.7663461775,3.0265162043\C,0,3.3051410378,
 -0.84552474,2.4718935966\H,0,3.5260104252,-0.4500646445,3.4769412467\H
 ,0,2.3381052922,-1.3600967388,2.520112311\H,0,4.0707771786,-1.59502270
 55,2.2387146229\C,0,4.7704240186,0.7539369017,1.2149856629\H,0,5.17597
 07659,1.1501238196,2.1611184016\H,0,5.4168222909,-0.0772452711,0.90724
 09038\H,0,4.8421783566,1.5554609873,0.4650084288\C,0,4.6739696313,-0.5
 329570165,-1.866316758\H,0,5.3387346445,-0.0281782055,-1.1573510038\H,
 0,5.2868223541,-1.2387792202,-2.4524052097\H,0,4.2797028516,0.21602951
 84,-2.5682782198\C,0,4.1199206205,-2.4398034261,-0.3034956655\H,0,4.60
 88393451,-3.1852257447,-0.9519674224\H,0,4.875898777,-2.0724149962,0.4
 015117861\H,0,3.3310018848,-2.9561754834,0.2646056778\C,0,2.7084384471
 ,-1.9853533456,-2.2909923221\H,0,1.894280628,-2.5918283253,-1.87036632
 25\H,0,2.2963944633,-1.2486108743,-2.9937088862\H,0,3.3650079209,-2.65
 80928179,-2.8667568117\C,0,-3.1975273902,-1.0593485797,-2.4707074934\H
 ,0,-3.5703710264,-0.8178823929,-3.4805469609\H,0,-2.1598008063,-1.4047
 083805,-2.559409464\H,0,-3.8132901096,-1.8779769498,-2.079295579\C,0,-
 4.7409570335,0.6429021213,-1.4484554445\H,0,-5.1146648199,0.9367395751
 ,-2.4441108174\H,0,-5.3909148951,-0.1619236566,-1.0821719738\H,0,-4.84
 9056413,1.5151628668,-0.7865568351\C,0,-2.521524914,1.3509236822,-2.29
 54995147\H,0,-2.6681073248,2.3108618715,-1.7813251042\H,0,-1.449010231
 8,1.1486916523,-2.3800417563\H,0,-2.9306142285,1.4609007391,-3.3136594
 82\C,0,-2.7783395204,-1.5839075033,2.4358236492\H,0,-1.9558500438,-2.2
 490929687,2.1408743721\H,0,-2.3691025632,-0.755433409,3.0272986785\H,0
 ,-3.4574418002,-2.1541439536,3.090963737\C,0,-4.7255602745,-0.20856700
 9,1.7583531687\H,0,-5.373054306,0.1862735619,0.9687146777\H,0,-5.35298
 03086,-0.8214836781,2.427426774\H,0,-4.3460208333,0.6360586919,2.35172
 92097\C,0,-4.1390496071,-2.3172081112,0.4943671776\H,0,-4.6655979378,-
 2.953722333,1.2244563861\H,0,-4.8591049661,-2.0513776587,-0.2897184026
 \H,0,-3.3351550352,-2.9195021922,0.0437764686\O,0,-0.0467168979,-2.653
 7660472,-0.0848380298\C,0,0.0361735072,-0.5314053571,1.8507102099\H,0,
 -0.3052093799,-2.7486339917,-1.0139561888\O,0,0.0897914219,-0.50681663
 86,3.0198342679\\Version=ES64L-G16RevC.02\State=1-A\HF=-1999.0074695\R
 MSD=1.671e-09\PG=C01 [X(C24H45N1O3P2Ru1)]\\@
 The archive entry for this job was punched.


 IMAGINATION WILL OFTEN CARRY US TO WORLDS THAT NEVER WERE.
 BUT WITHOUT IT, WE GO NOWHERE. -- CARL SAGAN (COSMOS)
 Job cpu time:       0 days 19 hours  0 minutes 39.7 seconds.
 Elapsed time:       0 days  0 hours 33 minutes 15.0 seconds.
 File lengths (MBytes):  RWF=  10890 Int=      0 D2E=      0 Chk=    801 Scr=      1
 Normal termination of Gaussian 16 at Wed Jul 17 22:35:00 2024.
